     Program PWSCF v.6.0 (svn rev. 13079) starts on 29Jul2017 at  1:14:49

     Current dimensions of program PWSCF are:
     Max number of different atomic species (ntypx) = 10
     Max number of k-points (npk) =  40000
     Max angular momentum in pseudopotentials (lmaxx) =  3
     Message from routine iosys:
     pot_extrapolation='second-order' not available, using 'atomic'
     Message from routine iosys:
     wfc_extrapolation='second-order' not available, using 'atomic'

     Subspace diagonalization in iterative solution of the eigenvalue problem:
     a serial algorithm will be used

     bravais-lattice index     =            1
     lattice parameter (alat)  =      20.0000  a.u.
     unit-cell volume          =    8000.0000 (a.u.)^3
     number of atoms/cell      =            5
     number of atomic types    =            1
     number of electrons       =        55.00
     number of Kohn-Sham states=           34
     kinetic-energy cutoff     =      30.0000  Ry
     charge density cutoff     =     120.0000  Ry
     convergence threshold     =      1.0E-08
     mixing beta               =       0.7000
     number of iterations used =            8  plain     mixing
     Exchange-correlation      = BLYP ( 1  3  1  3 0 0)
     nstep                     =           50

     celldm(1)=  20.000000  celldm(2)=   0.000000  celldm(3)=   0.000000
     celldm(4)=   0.000000  celldm(5)=   0.000000  celldm(6)=   0.000000

     crystal axes: (cart. coord. in units of alat)
               a(1) = (   1.000000   0.000000   0.000000 )
               a(2) = (   0.000000   1.000000   0.000000 )
               a(3) = (   0.000000   0.000000   1.000000 )

     reciprocal axes: (cart. coord. in units 2 pi/alat)
               b(1) = (  1.000000  0.000000  0.000000 )
               b(2) = (  0.000000  1.000000  0.000000 )
               b(3) = (  0.000000  0.000000  1.000000 )

     PseudoPot. # 1 for Au read from file:
     ./Au.blyp-d-hgh.UPF
     MD5 check sum: c10d8bae01f806c36a1643a1c69a8479
     Pseudo is Norm-conserving, Zval = 11.0
     Generated in analytical, separable form
     Using radial grid of 1279 points,  6 beta functions with:
                l(1) =   0
                l(2) =   0
                l(3) =   1
                l(4) =   1
                l(5) =   2
                l(6) =   2

     atomic species   valence    mass     pseudopotential
        Au            11.00    28.08600     Au( 1.00)

     No symmetry found

   Cartesian axes

     site n.     atom                  positions (alat units)
         1           Au  tau(   1) = (  -0.0835726   0.1194572  -0.0477749  )
         2           Au  tau(   2) = (  -0.0508476   0.1900664   0.1876029  )
         3           Au  tau(   3) = (   0.1533541   0.0789210   0.0284504  )
         4           Au  tau(   4) = (   0.1978255   0.1656944   0.2853260  )
         5           Au  tau(   5) = (   0.3751731   0.0671069   0.1458393  )

     number of k points=     1  Marzari-Vanderbilt smearing, width (Ry)=  0.0250
                       cart. coord. in units 2pi/alat
        k(    1) = (   0.0000000   0.0000000   0.0000000), wk =   2.0000000

     Initial potential from superposition of free atoms
     Check: negative starting charge=   -0.006426

     starting charge   54.99940, renormalised to   55.00000

     negative rho (up, down):  6.426E-03 0.000E+00
     Starting wfc are   45 randomized atomic wfcs

     Self-consistent Calculation

     iteration #  1     ecut=    30.00 Ry     beta=0.70
     Davidson diagonalization with overlap
     ethr =  1.00E-02,  avg # of iterations =  3.0

     Threshold (ethr) on eigenvalues was too large:
     Diagonalizing with lowered threshold

     Davidson diagonalization with overlap
     ethr =  4.19E-04,  avg # of iterations =  5.0

     negative rho (up, down):  8.828E-04 0.000E+00

     total energy              =    -329.36986455 Ry
     Harris-Foulkes estimate   =    -329.54550289 Ry
     estimated scf accuracy    <       0.28955090 Ry

[...]

     End of self-consistent calculation

          k = 0.0000 0.0000 0.0000 ( 22119 PWs)   bands (ev):

    -8.5125  -7.8975  -7.6481  -7.1696  -6.9631  -6.8694  -6.8365  -6.5579
    -6.2143  -6.1738  -6.0569  -5.7650  -5.7474  -5.6659  -5.4375  -5.3379
    -5.2919  -5.2662  -5.2187  -5.1616  -5.1432  -5.1373  -5.0119  -4.9153
    -4.9003  -4.6563  -4.4568  -3.6903  -2.5014  -2.1773  -0.5473  -0.1782
     0.4805   0.7895

     the Fermi energy is    -3.6512 ev

!    total energy              =    -329.48504234 Ry
     Harris-Foulkes estimate   =    -329.48504240 Ry
     estimated scf accuracy    <          7.3E-09 Ry

     The total energy is the sum of the following terms:

     one-electron contribution =    -610.18389528 Ry
     hartree contribution      =     326.50204382 Ry
     xc contribution           =     -51.41769110 Ry
     ewald contribution        =       5.62041741 Ry
     smearing contrib. (-TS)   =      -0.00591720 Ry

     convergence has been achieved in  11 iterations

     Forces acting on atoms (Ry/au):

     atom    1 type  1   force =    -0.00368631   -0.00691806   -0.02273629
     atom    2 type  1   force =     0.01695408    0.00521308    0.02266559
     atom    3 type  1   force =    -0.00584076    0.00292198    0.00371429
     atom    4 type  1   force =    -0.03233760    0.01125372    0.01083280
     atom    5 type  1   force =     0.02491058   -0.01247072   -0.01447640

     Total force =     0.061143     Total SCF correction =     0.000420

     BFGS Geometry Optimization

     number of scf cycles    =   1
     number of bfgs steps    =   0

     energy   new            =    -329.4850423429 Ry

     new trust radius        =       0.0359126172 bohr
     new conv_thr            =       0.0000000100 Ry

ATOMIC_POSITIONS (bohr)
Au      -1.675138309   2.382225941  -0.978235285
Au      -0.999997916   3.806542080   3.774724589
Au       3.061242244   1.581341982   0.572722290
Au       3.924173403   3.325142723   5.717353804
Au       7.528372578   1.329667275   2.902309603

     Writing output data file pwscf.save
     Check: negative starting charge=   -0.006426
     NEW-OLD atomic charge density approx. for the potential
     Check: negative starting charge=   -0.006387

[...]

     energy   old            =    -329.4850423429 Ry
     energy   new            =    -329.4881661420 Ry

     CASE: energy  _new < energy  _old

[...]

     number of scf cycles    =  19
     number of bfgs steps    =  18

     energy   old            =    -329.4928071327 Ry
     energy   new            =    -329.4928298641 Ry

     CASE: energy  _new < energy  _old

     new trust radius        =       0.0040290560 bohr
     new conv_thr            =            1.0E-10 Ry

ATOMIC_POSITIONS (bohr)
Au      -1.714121288   2.300872537  -1.086472691
Au      -0.815081882   3.925889603   3.736110388
Au       2.985658303   1.671953764   0.670391953
Au       3.874253266   3.315177538   5.833974213
Au       7.507943600   1.211026559   2.834871136

     Writing output data file pwscf.save
     Check: negative starting charge=   -0.006426
     NEW-OLD atomic charge density approx. for the potential
     Check: negative starting charge=   -0.006426

     negative rho (up, down):  1.564E-08 0.000E+00

     Self-consistent Calculation

[...]

     Threshold (ethr) on eigenvalues was too large:
     Diagonalizing with lowered threshold

     Davidson diagonalization with overlap
     ethr =  4.30E-09,  avg # of iterations =  2.0

[...]

     total energy              =    -329.49283614 Ry
     Harris-Foulkes estimate   =    -329.49283615 Ry
     estimated scf accuracy    <          7.0E-10 Ry

     iteration #  8     ecut=    30.00 Ry     beta=0.70
     Davidson diagonalization with overlap
     ethr =  1.28E-12,  avg # of iterations =  2.0

     End of self-consistent calculation

          k = 0.0000 0.0000 0.0000 ( 22119 PWs)   bands (ev):

    -8.5157  -7.7818  -7.6582  -7.2351  -6.8666  -6.8194  -6.6105  -6.4820
    -6.3102  -6.0786  -5.9561  -5.7735  -5.7297  -5.6901  -5.4535  -5.3583
    -5.3166  -5.2458  -5.2037  -5.1827  -5.1682  -5.1238  -4.9998  -4.9239
    -4.8463  -4.7251  -4.4800  -3.7773  -2.4481  -2.2052  -0.5479  -0.1925
     0.4715   0.8318

     the Fermi energy is    -3.7445 ev

!    total energy              =    -329.49283614 Ry
     Harris-Foulkes estimate   =    -329.49283614 Ry
     estimated scf accuracy    <          9.8E-11 Ry

     The total energy is the sum of the following terms:

     one-electron contribution =    -607.97936807 Ry
     hartree contribution      =     325.41942665 Ry
     xc contribution           =     -51.40090110 Ry
     ewald contribution        =       4.47240168 Ry
     smearing contrib. (-TS)   =      -0.00439531 Ry

     convergence has been achieved in   8 iterations

     Forces acting on atoms (Ry/au):

     atom    1 type  1   force =     0.00042105    0.00021946   -0.00075722
     atom    2 type  1   force =    -0.00068730    0.00038730    0.00013614
     atom    3 type  1   force =    -0.00017888    0.00017948   -0.00003402
     atom    4 type  1   force =     0.00010247    0.00021073   -0.00011857
     atom    5 type  1   force =     0.00034266   -0.00099697    0.00077366

     Total force =     0.001812     Total SCF correction =     0.000042

     bfgs converged in  20 scf cycles and  19 bfgs steps
     (criteria: energy <  1.0E-04, force <  1.0E-03)

     End of BFGS Geometry Optimization

     Final energy   =    -329.4928361429 Ry
Begin final coordinates

ATOMIC_POSITIONS (bohr)
Au      -1.714121288   2.300872537  -1.086472691
Au      -0.815081882   3.925889603   3.736110388
Au       2.985658303   1.671953764   0.670391953
Au       3.874253266   3.315177538   5.833974213
Au       7.507943600   1.211026559   2.834871136
End final coordinates

     Writing output data file pwscf.save

     General routines

     Parallel routines

   This run was terminated on:   1:16: 6  29Jul2017

   JOB DONE.