     Program PWSCF v.6.0 (svn rev. 13079) starts on 29Jul2017 at  1:23: 0

     Current dimensions of program PWSCF are:
     Max number of different atomic species (ntypx) = 10
     Max number of k-points (npk) =  40000
     Max angular momentum in pseudopotentials (lmaxx) =  3
     Message from routine iosys:
     pot_extrapolation='second-order' not available, using 'atomic'
     Message from routine iosys:
     wfc_extrapolation='second-order' not available, using 'atomic'

     Subspace diagonalization in iterative solution of the eigenvalue problem:
     a serial algorithm will be used

     bravais-lattice index     =            1
     lattice parameter (alat)  =      20.0000  a.u.
     unit-cell volume          =    8000.0000 (a.u.)^3
     number of atoms/cell      =            5
     number of atomic types    =            1
     number of electrons       =        55.00
     number of Kohn-Sham states=           34
     kinetic-energy cutoff     =      30.0000  Ry
     charge density cutoff     =     120.0000  Ry
     convergence threshold     =      1.0E-08
     mixing beta               =       0.7000
     number of iterations used =            8  plain     mixing
     Exchange-correlation      = BLYP ( 1  3  1  3 0 0)
     nstep                     =           50

     celldm(1)=  20.000000  celldm(2)=   0.000000  celldm(3)=   0.000000
     celldm(4)=   0.000000  celldm(5)=   0.000000  celldm(6)=   0.000000

     crystal axes: (cart. coord. in units of alat)
               a(1) = (   1.000000   0.000000   0.000000 )
               a(2) = (   0.000000   1.000000   0.000000 )
               a(3) = (   0.000000   0.000000   1.000000 )

     reciprocal axes: (cart. coord. in units 2 pi/alat)
               b(1) = (  1.000000  0.000000  0.000000 )
               b(2) = (  0.000000  1.000000  0.000000 )
               b(3) = (  0.000000  0.000000  1.000000 )

     PseudoPot. # 1 for Au read from file:
     ./Au.blyp-d-hgh.UPF
     MD5 check sum: c10d8bae01f806c36a1643a1c69a8479
     Pseudo is Norm-conserving, Zval = 11.0
     Generated in analytical, separable form
     Using radial grid of 1279 points,  6 beta functions with:
                l(1) =   0
                l(2) =   0
                l(3) =   1
                l(4) =   1
                l(5) =   2
                l(6) =   2

     atomic species   valence    mass     pseudopotential
        Au            11.00    28.08600     Au( 1.00)

     No symmetry found

   Cartesian axes

     site n.     atom                  positions (alat units)
         1           Au  tau(   1) = (  -0.1099625   0.1349327  -0.0218463  )
         2           Au  tau(   2) = (   0.0014539   0.1069333   0.2130404  )
         3           Au  tau(   3) = (   0.1418775   0.0999861  -0.0025003  )
         4           Au  tau(   4) = (   0.2224138   0.2058716   0.2843548  )
         5           Au  tau(   5) = (   0.3546311   0.0587097   0.1151675  )

     number of k points=     1  Marzari-Vanderbilt smearing, width (Ry)=  0.0250
                       cart. coord. in units 2pi/alat
        k(    1) = (   0.0000000   0.0000000   0.0000000), wk =   2.0000000

     Initial potential from superposition of free atoms
     Check: negative starting charge=   -0.006359

     starting charge   54.99940, renormalised to   55.00000

     negative rho (up, down):  6.359E-03 0.000E+00
     Starting wfc are   45 randomized atomic wfcs

     Self-consistent Calculation

     iteration #  1     ecut=    30.00 Ry     beta=0.70
     Davidson diagonalization with overlap
     ethr =  1.00E-02,  avg # of iterations =  3.0

     Threshold (ethr) on eigenvalues was too large:
     Diagonalizing with lowered threshold

     Davidson diagonalization with overlap
     ethr =  3.84E-04,  avg # of iterations =  8.0

     negative rho (up, down):  8.623E-04 0.000E+00

     total energy              =    -329.36602120 Ry
     Harris-Foulkes estimate   =    -329.52685073 Ry
     estimated scf accuracy    <       0.27004334 Ry

[...]

     End of self-consistent calculation

          k = 0.0000 0.0000 0.0000 ( 22119 PWs)   bands (ev):

    -8.3020  -7.7040  -7.5945  -7.2667  -7.0066  -6.7110  -6.6732  -6.5128
    -6.2299  -5.9646  -5.9215  -5.7378  -5.6424  -5.5716  -5.5258  -5.4710
    -5.2266  -5.2031  -5.1524  -5.1440  -5.1268  -4.9822  -4.9513  -4.9142
    -4.8600  -4.4640  -4.3762  -3.7256  -2.4784  -2.2642  -0.3560  -0.1897
     0.3677   0.7132

     the Fermi energy is    -3.7114 ev

!    total energy              =    -329.47208119 Ry
     Harris-Foulkes estimate   =    -329.47208125 Ry
     estimated scf accuracy    <          2.6E-09 Ry

     The total energy is the sum of the following terms:

     one-electron contribution =    -610.66683618 Ry
     hartree contribution      =     326.86969280 Ry
     xc contribution           =     -51.41873126 Ry
     ewald contribution        =       5.74387538 Ry
     smearing contrib. (-TS)   =      -0.00008193 Ry

     convergence has been achieved in  12 iterations

     Forces acting on atoms (Ry/au):

     atom    1 type  1   force =     0.00223476   -0.00297911    0.00268026
     atom    2 type  1   force =    -0.01784519    0.00747731   -0.00305930
     atom    3 type  1   force =    -0.01427149    0.00068521   -0.01022491
     atom    4 type  1   force =     0.01227158   -0.00694546   -0.00006951
     atom    5 type  1   force =     0.01761034    0.00176205    0.01067347

     Total force =     0.036599     Total SCF correction =     0.000178

     BFGS Geometry Optimization

     number of scf cycles    =   1
     number of bfgs steps    =   0

     energy   new            =    -329.4720811927 Ry

     new trust radius        =       0.0206676487 bohr
     new conv_thr            =       0.0000000100 Ry

ATOMIC_POSITIONS (bohr)
Au      -2.197015240   2.695673895  -0.434245745
Au       0.011232813   2.146144311   4.257748704
Au       2.823277511   2.000406209  -0.060230915
Au       4.460548577   4.110486537   5.687026490
Au       7.110231339   1.175956048   2.314023465

     Writing output data file pwscf.save
     Check: negative starting charge=   -0.006359
     NEW-OLD atomic charge density approx. for the potential
     Check: negative starting charge=   -0.006360

[...]

     energy   old            =    -329.4720811927 Ry
     energy   new            =    -329.4732322919 Ry

     CASE: energy  _new < energy  _old

[...]

     WARNING: bfgs curvature condition failed, Theta= 0.916
     new trust radius        =       0.1258787080 bohr
     new conv_thr            =       0.0000000015 Ry

[...]

     iteration #  1     ecut=    30.00 Ry     beta=0.70
     Davidson diagonalization with overlap
     c_bands:  1 eigenvalues not converged
     ethr =  1.00E-06,  avg # of iterations = 20.0

[...]

     iteration #  1     ecut=    30.00 Ry     beta=0.70
     Davidson diagonalization with overlap
     c_bands:  1 eigenvalues not converged
     ethr =  1.00E-06,  avg # of iterations = 20.0

[...]

     WARNING: bfgs curvature condition failed, Theta= 0.871
     new trust radius        =       0.0323442287 bohr
     new conv_thr            =            1.0E-10 Ry

[...]

     Threshold (ethr) on eigenvalues was too large:
     Diagonalizing with lowered threshold

     Davidson diagonalization with overlap
     ethr =  7.99E-08,  avg # of iterations =  1.0

[...]

     Self-consistent Calculation

[...]

     total energy              =    -329.49176505 Ry
     Harris-Foulkes estimate   =    -329.49176504 Ry
     estimated scf accuracy    <          1.9E-10 Ry

     iteration # 11     ecut=    30.00 Ry     beta=0.70
     Davidson diagonalization with overlap
     ethr =  3.53E-13,  avg # of iterations =  2.0

     End of self-consistent calculation

          k = 0.0000 0.0000 0.0000 ( 22119 PWs)   bands (ev):

    -8.5249  -7.8040  -7.6715  -7.2545  -6.8502  -6.8233  -6.6214  -6.4993
    -6.3165  -6.0808  -5.9562  -5.7718  -5.7282  -5.6896  -5.4710  -5.3586
    -5.3136  -5.2514  -5.1987  -5.1825  -5.1727  -5.1214  -5.0073  -4.9223
    -4.8315  -4.7332  -4.4835  -3.7789  -2.4949  -2.1781  -0.5605  -0.2112
     0.5473   0.8452

     the Fermi energy is    -3.7459 ev

!    total energy              =    -329.49176506 Ry
     Harris-Foulkes estimate   =    -329.49176505 Ry
     estimated scf accuracy    <          2.4E-11 Ry

     The total energy is the sum of the following terms:

     one-electron contribution =    -609.66255449 Ry
     hartree contribution      =     326.25547049 Ry
     xc contribution           =     -51.40398647 Ry
     ewald contribution        =       5.32375366 Ry
     smearing contrib. (-TS)   =      -0.00444825 Ry

     convergence has been achieved in  11 iterations

     Forces acting on atoms (Ry/au):

     atom    1 type  1   force =     0.00126910   -0.00066837    0.00004955
     atom    2 type  1   force =    -0.00059239    0.00104842    0.00002114
     atom    3 type  1   force =     0.00072842   -0.00092533   -0.00098249
     atom    4 type  1   force =    -0.00024841    0.00024142    0.00138747
     atom    5 type  1   force =    -0.00115673    0.00030386   -0.00047567

     Total force =     0.003093     Total SCF correction =     0.000021

     number of scf cycles    =  50
     number of bfgs steps    =  49

     energy   old            =    -329.4917205591 Ry
     energy   new            =    -329.4917650643 Ry

     CASE: energy  _new < energy  _old

     new trust radius        =       0.0353318580 bohr
     new conv_thr            =            1.0E-10 Ry

ATOMIC_POSITIONS (bohr)
Au      -2.029320725   2.555397360  -0.622305539
Au      -0.560125992   3.720609934   4.187835511
Au       2.827754123   1.760892019   0.534559798
Au       4.381844086   3.018718386   5.592803791
Au       7.588123508   1.073049300   2.071428439

     Writing output data file pwscf.save
     Check: negative starting charge=   -0.006475
     NEW-OLD atomic charge density approx. for the potential
     Check: negative starting charge=   -0.006484

     negative rho (up, down):  3.285E-04 0.000E+00

     Writing output data file pwscf.save

     General routines

     Parallel routines

   This run was terminated on:   1:26: 0  29Jul2017

   JOB DONE.