     Program PWSCF v.6.0 (svn rev. 13079) starts on 29Jul2017 at  0:49:33

     Current dimensions of program PWSCF are:
     Max number of different atomic species (ntypx) = 10
     Max number of k-points (npk) =  40000
     Max angular momentum in pseudopotentials (lmaxx) =  3
     Message from routine iosys:
     pot_extrapolation='second-order' not available, using 'atomic'
     Message from routine iosys:
     wfc_extrapolation='second-order' not available, using 'atomic'

     Subspace diagonalization in iterative solution of the eigenvalue problem:
     a serial algorithm will be used

     bravais-lattice index     =            1
     lattice parameter (alat)  =      20.0000  a.u.
     unit-cell volume          =    8000.0000 (a.u.)^3
     number of atoms/cell      =            5
     number of atomic types    =            1
     number of electrons       =        55.00
     number of Kohn-Sham states=           34
     kinetic-energy cutoff     =      30.0000  Ry
     charge density cutoff     =     120.0000  Ry
     convergence threshold     =      1.0E-08
     mixing beta               =       0.7000
     number of iterations used =            8  plain     mixing
     Exchange-correlation      = BLYP ( 1  3  1  3 0 0)
     nstep                     =           50

     celldm(1)=  20.000000  celldm(2)=   0.000000  celldm(3)=   0.000000
     celldm(4)=   0.000000  celldm(5)=   0.000000  celldm(6)=   0.000000

     crystal axes: (cart. coord. in units of alat)
               a(1) = (   1.000000   0.000000   0.000000 )
               a(2) = (   0.000000   1.000000   0.000000 )
               a(3) = (   0.000000   0.000000   1.000000 )

     reciprocal axes: (cart. coord. in units 2 pi/alat)
               b(1) = (  1.000000  0.000000  0.000000 )
               b(2) = (  0.000000  1.000000  0.000000 )
               b(3) = (  0.000000  0.000000  1.000000 )

     PseudoPot. # 1 for Au read from file:
     ./Au.blyp-d-hgh.UPF
     MD5 check sum: c10d8bae01f806c36a1643a1c69a8479
     Pseudo is Norm-conserving, Zval = 11.0
     Generated in analytical, separable form
     Using radial grid of 1279 points,  6 beta functions with:
                l(1) =   0
                l(2) =   0
                l(3) =   1
                l(4) =   1
                l(5) =   2
                l(6) =   2

     atomic species   valence    mass     pseudopotential
        Au            11.00    28.08600     Au( 1.00)

     No symmetry found

   Cartesian axes

     site n.     atom                  positions (alat units)
         1           Au  tau(   1) = (  -0.1031632   0.1616166  -0.0192431  )
         2           Au  tau(   2) = (   0.0065590   0.1794042   0.2154368  )
         3           Au  tau(   3) = (   0.1456052   0.0957868   0.0009498  )
         4           Au  tau(   4) = (   0.2329744   0.1744441   0.3235121  )
         5           Au  tau(   5) = (   0.3592559   0.0338441   0.1206914  )

     number of k points=     1  Marzari-Vanderbilt smearing, width (Ry)=  0.0250
                       cart. coord. in units 2pi/alat
        k(    1) = (   0.0000000   0.0000000   0.0000000), wk =   2.0000000

     Initial potential from superposition of free atoms
     Check: negative starting charge=   -0.006181

     starting charge   54.99940, renormalised to   55.00000

     negative rho (up, down):  6.181E-03 0.000E+00
     Starting wfc are   45 randomized atomic wfcs

     Self-consistent Calculation

     iteration #  1     ecut=    30.00 Ry     beta=0.70
     Davidson diagonalization with overlap
     ethr =  1.00E-02,  avg # of iterations =  3.0

     Threshold (ethr) on eigenvalues was too large:
     Diagonalizing with lowered threshold

     Davidson diagonalization with overlap
     ethr =  4.19E-04,  avg # of iterations =  3.0

     negative rho (up, down):  8.455E-04 0.000E+00

     total energy              =    -329.36435038 Ry
     Harris-Foulkes estimate   =    -329.52987404 Ry
     estimated scf accuracy    <       0.28307045 Ry

[...]

     End of self-consistent calculation

          k = 0.0000 0.0000 0.0000 ( 22119 PWs)   bands (ev):

    -8.0161  -7.5159  -7.3837  -7.1190  -6.7524  -6.5269  -6.4117  -6.2638
    -6.2217  -5.9587  -5.8062  -5.6201  -5.5722  -5.4036  -5.3752  -5.3681
    -5.3506  -5.2795  -5.1895  -5.1503  -5.0534  -4.9714  -4.6411  -4.5952
    -4.5692  -4.3765  -4.3749  -4.0444  -2.3981  -2.1830  -0.4293  -0.3549
     0.4797   0.7558

     the Fermi energy is    -4.0898 ev

!    total energy              =    -329.47238440 Ry
     Harris-Foulkes estimate   =    -329.47238448 Ry
     estimated scf accuracy    <          4.1E-09 Ry

     The total energy is the sum of the following terms:

     one-electron contribution =    -588.86537299 Ry
     hartree contribution      =     316.19005823 Ry
     xc contribution           =     -51.41136759 Ry
     ewald contribution        =      -5.40940120 Ry
     smearing contrib. (-TS)   =       0.02369915 Ry

     convergence has been achieved in  66 iterations

     Forces acting on atoms (Ry/au):

     atom    1 type  1   force =     0.01173587   -0.00027903    0.00835206
     atom    2 type  1   force =    -0.00582800   -0.00435333   -0.03116502
     atom    3 type  1   force =    -0.02213384    0.00827772    0.01746302
     atom    4 type  1   force =     0.02445813   -0.01608990   -0.01665153
     atom    5 type  1   force =    -0.00823216    0.01244454    0.02200147

     Total force =     0.062739     Total SCF correction =     0.000271

     BFGS Geometry Optimization

     number of scf cycles    =   1
     number of bfgs steps    =   0

     energy   new            =    -329.4723844014 Ry

     new trust radius        =       0.0336802357 bohr
     new conv_thr            =       0.0000000100 Ry

ATOMIC_POSITIONS (bohr)
Au      -2.051528134   3.232052970  -0.376508937
Au       0.125353002   3.583731670   4.277570983
Au       2.889971165   1.924013725   0.036459016
Au       4.683946126   3.472792099   6.453590470
Au       7.176886841   0.689325536   2.435830468

     Writing output data file pwscf.save
     Check: negative starting charge=   -0.006181
     NEW-OLD atomic charge density approx. for the potential
     Check: negative starting charge=   -0.006208

[...]

     energy   old            =    -329.4723844014 Ry
     energy   new            =    -329.4760363535 Ry

     CASE: energy  _new < energy  _old

     WARNING: bfgs curvature condition failed, Theta= 0.937
     new trust radius        =       0.0370482593 bohr
     new conv_thr            =       0.0000000025 Ry

[...]

     CASE: energy  _new > energy  _old

[...]

     WARNING: info=  9 for Hessian
     uphill step: resetting bfgs history

[...]

     WARNING: bfgs curvature condition failed, Theta= 0.983
     new trust radius        =       0.0159669070 bohr
     new conv_thr            =       0.0000000003 Ry

[...]

     CASE: energy  _new < energy  _old

[...]

     new trust radius        =       0.0000017796 bohr

     trust_radius < trust_radius_min

     resetting bfgs history

     new conv_thr            =       0.0000000017 Ry

[...]

     new trust radius        =       0.0014635094 bohr
     new conv_thr            =       0.0000000017 Ry

[...]

     Self-consistent Calculation

[...]

     Threshold (ethr) on eigenvalues was too large:
     Diagonalizing with lowered threshold

     Davidson diagonalization with overlap
     ethr =  5.47E-08,  avg # of iterations =  1.0

[...]

     total energy              =    -329.49010012 Ry
     Harris-Foulkes estimate   =    -329.49010018 Ry
     estimated scf accuracy    <          5.2E-09 Ry

     iteration #  8     ecut=    30.00 Ry     beta=0.70
     Davidson diagonalization with overlap
     ethr =  9.40E-12,  avg # of iterations =  2.0

     End of self-consistent calculation

          k = 0.0000 0.0000 0.0000 ( 22119 PWs)   bands (ev):

    -8.5413  -7.8568  -7.7138  -7.3310  -7.1149  -6.8438  -6.7105  -6.5502
    -6.3666  -6.0847  -6.0412  -5.7644  -5.7347  -5.6941  -5.4072  -5.3714
    -5.3478  -5.2458  -5.2068  -5.1899  -5.1672  -5.1304  -4.9921  -4.9372
    -4.8790  -4.5884  -4.4693  -3.7470  -2.4665  -2.0924  -0.5455  -0.2299
     0.4646   0.7655

     the Fermi energy is    -3.7150 ev

!    total energy              =    -329.49010007 Ry
     Harris-Foulkes estimate   =    -329.49010012 Ry
     estimated scf accuracy    <          8.8E-10 Ry

     The total energy is the sum of the following terms:

     one-electron contribution =    -612.16544454 Ry
     hartree contribution      =     327.47541121 Ry
     xc contribution           =     -51.42459082 Ry
     ewald contribution        =       6.62862768 Ry
     smearing contrib. (-TS)   =      -0.00410360 Ry

     convergence has been achieved in   8 iterations

     Forces acting on atoms (Ry/au):

     atom    1 type  1   force =    -0.00764946    0.00019158   -0.01072449
     atom    2 type  1   force =    -0.00301686    0.00361040    0.00835940
     atom    3 type  1   force =     0.00223591   -0.00095684    0.00028307
     atom    4 type  1   force =    -0.00526057    0.00460935    0.00987564
     atom    5 type  1   force =     0.01369098   -0.00745449   -0.00779361

     Total force =     0.026866     Total SCF correction =     0.000136

     number of scf cycles    =  50
     number of bfgs steps    =  26

     energy   old            =    -329.4940084976 Ry
     energy   new            =    -329.4901000737 Ry

     CASE: energy  _new > energy  _old

     new trust radius        =       0.0000096360 bohr

     trust_radius < trust_radius_min

     resetting bfgs history

     new conv_thr            =       0.0000000017 Ry

ATOMIC_POSITIONS (bohr)
Au      -1.827416177   3.313295291  -0.498607542
Au      -0.168203856   3.997680006   4.269214091
Au       2.857031588   1.809237725   0.586694711
Au       4.565724486   3.008557754   5.981284004
Au       7.397492960   0.773145225   2.488356737

     Writing output data file pwscf.save
     Check: negative starting charge=   -0.006338
     NEW-OLD atomic charge density approx. for the potential
     Check: negative starting charge=   -0.006326

     negative rho (up, down):  2.603E-05 0.000E+00

     Writing output data file pwscf.save

     General routines

     Parallel routines

   This run was terminated on:   0:54:41  29Jul2017

   JOB DONE.