     Program PWSCF v.6.0 (svn rev. 13079) starts on 29Jul2017 at  1: 9:20

     Current dimensions of program PWSCF are:
     Max number of different atomic species (ntypx) = 10
     Max number of k-points (npk) =  40000
     Max angular momentum in pseudopotentials (lmaxx) =  3
     Message from routine iosys:
     pot_extrapolation='second-order' not available, using 'atomic'
     Message from routine iosys:
     wfc_extrapolation='second-order' not available, using 'atomic'

     Subspace diagonalization in iterative solution of the eigenvalue problem:
     a serial algorithm will be used

     bravais-lattice index     =            1
     lattice parameter (alat)  =      20.0000  a.u.
     unit-cell volume          =    8000.0000 (a.u.)^3
     number of atoms/cell      =            5
     number of atomic types    =            1
     number of electrons       =        55.00
     number of Kohn-Sham states=           34
     kinetic-energy cutoff     =      30.0000  Ry
     charge density cutoff     =     120.0000  Ry
     convergence threshold     =      1.0E-08
     mixing beta               =       0.7000
     number of iterations used =            8  plain     mixing
     Exchange-correlation      = BLYP ( 1  3  1  3 0 0)
     nstep                     =           50

     celldm(1)=  20.000000  celldm(2)=   0.000000  celldm(3)=   0.000000
     celldm(4)=   0.000000  celldm(5)=   0.000000  celldm(6)=   0.000000

     crystal axes: (cart. coord. in units of alat)
               a(1) = (   1.000000   0.000000   0.000000 )
               a(2) = (   0.000000   1.000000   0.000000 )
               a(3) = (   0.000000   0.000000   1.000000 )

     reciprocal axes: (cart. coord. in units 2 pi/alat)
               b(1) = (  1.000000  0.000000  0.000000 )
               b(2) = (  0.000000  1.000000  0.000000 )
               b(3) = (  0.000000  0.000000  1.000000 )

     PseudoPot. # 1 for Au read from file:
     ./Au.blyp-d-hgh.UPF
     MD5 check sum: c10d8bae01f806c36a1643a1c69a8479
     Pseudo is Norm-conserving, Zval = 11.0
     Generated in analytical, separable form
     Using radial grid of 1279 points,  6 beta functions with:
                l(1) =   0
                l(2) =   0
                l(3) =   1
                l(4) =   1
                l(5) =   2
                l(6) =   2

     atomic species   valence    mass     pseudopotential
        Au            11.00    28.08600     Au( 1.00)

     No symmetry found

   Cartesian axes

     site n.     atom                  positions (alat units)
         1           Au  tau(   1) = (  -0.0835728   0.0877050  -0.0546907  )
         2           Au  tau(   2) = (  -0.0351378   0.1915513   0.1803789  )
         3           Au  tau(   3) = (   0.1576932   0.0982311   0.0371580  )
         4           Au  tau(   4) = (   0.2010283   0.1688422   0.2938026  )
         5           Au  tau(   5) = (   0.3898375   0.0641918   0.1429870  )

     number of k points=     1  Marzari-Vanderbilt smearing, width (Ry)=  0.0250
                       cart. coord. in units 2pi/alat
        k(    1) = (   0.0000000   0.0000000   0.0000000), wk =   2.0000000

     Initial potential from superposition of free atoms
     Check: negative starting charge=   -0.006393

     starting charge   54.99940, renormalised to   55.00000

     negative rho (up, down):  6.393E-03 0.000E+00
     Starting wfc are   45 randomized atomic wfcs

     Self-consistent Calculation

     iteration #  1     ecut=    30.00 Ry     beta=0.70
     Davidson diagonalization with overlap
     ethr =  1.00E-02,  avg # of iterations =  3.0

     Threshold (ethr) on eigenvalues was too large:
     Diagonalizing with lowered threshold

     Davidson diagonalization with overlap
     ethr =  3.98E-04,  avg # of iterations =  8.0

     negative rho (up, down):  8.738E-04 0.000E+00

     total energy              =    -329.38281771 Ry
     Harris-Foulkes estimate   =    -329.54562762 Ry
     estimated scf accuracy    <       0.27278990 Ry

[...]

     End of self-consistent calculation

          k = 0.0000 0.0000 0.0000 ( 22119 PWs)   bands (ev):

    -8.4606  -7.7473  -7.7293  -7.1732  -6.7957  -6.7188  -6.5599  -6.5004
    -6.2568  -6.0916  -5.8360  -5.7936  -5.6633  -5.6212  -5.5123  -5.3550
    -5.3091  -5.2636  -5.1961  -5.1736  -5.1622  -5.1107  -5.0244  -4.9767
    -4.8196  -4.7111  -4.5485  -3.7636  -2.5024  -2.2720  -0.5468  -0.1262
     0.4028   0.8631

     the Fermi energy is    -3.7237 ev

!    total energy              =    -329.48761035 Ry
     Harris-Foulkes estimate   =    -329.48761039 Ry
     estimated scf accuracy    <          7.7E-09 Ry

     The total energy is the sum of the following terms:

     one-electron contribution =    -604.02603561 Ry
     hartree contribution      =     323.46145623 Ry
     xc contribution           =     -51.38146621 Ry
     ewald contribution        =       2.46449495 Ry
     smearing contrib. (-TS)   =      -0.00605971 Ry

     convergence has been achieved in  11 iterations

     Forces acting on atoms (Ry/au):

     atom    1 type  1   force =     0.01096971    0.00464009    0.00659846
     atom    2 type  1   force =    -0.00459833    0.00303800    0.00549982
     atom    3 type  1   force =     0.00740836   -0.01229118   -0.00656116
     atom    4 type  1   force =     0.00207242   -0.00235191   -0.00497426
     atom    5 type  1   force =    -0.01585217    0.00696501   -0.00056286

     Total force =     0.028805     Total SCF correction =     0.000319

     BFGS Geometry Optimization

     number of scf cycles    =   1
     number of bfgs steps    =   0

     energy   new            =    -329.4876103456 Ry

     new trust radius        =       0.0173239550 bohr
     new conv_thr            =       0.0000000100 Ry

ATOMIC_POSITIONS (bohr)
Au      -1.660486288   1.758740086  -1.087216544
Au      -0.707353326   3.834064001   3.613076820
Au       3.161272364   1.952329819   0.736598844
Au       4.022637421   3.374493089   5.871078743
Au       7.780897830   1.290802006   2.859176137

     Writing output data file pwscf.save
     Check: negative starting charge=   -0.006393
     NEW-OLD atomic charge density approx. for the potential
     Check: negative starting charge=   -0.006401

[...]

     energy   old            =    -329.4876103456 Ry
     energy   new            =    -329.4883766262 Ry

     CASE: energy  _new < energy  _old

     WARNING: bfgs curvature condition failed, Theta= 0.942
     new trust radius        =       0.0190563506 bohr
     new conv_thr            =       0.0000000008 Ry

[...]

     number of scf cycles    =  21
     number of bfgs steps    =  20

     energy   old            =    -329.4924437968 Ry
     energy   new            =    -329.4924663592 Ry

     CASE: energy  _new < energy  _old

     new trust radius        =       0.0039878419 bohr
     new conv_thr            =            1.0E-10 Ry

ATOMIC_POSITIONS (bohr)
Au      -1.548857932   1.985327849  -1.095351366
Au      -0.711083694   3.885622853   3.660699423
Au       3.154108438   1.605150586   0.727589403
Au       3.977871839   3.358771822   5.820698199
Au       7.724929350   1.375555891   2.879078341

     Writing output data file pwscf.save
     Check: negative starting charge=   -0.006449
     NEW-OLD atomic charge density approx. for the potential
     Check: negative starting charge=   -0.006449

     negative rho (up, down):  1.676E-08 0.000E+00

     Self-consistent Calculation

[...]

     Threshold (ethr) on eigenvalues was too large:
     Diagonalizing with lowered threshold

     Davidson diagonalization with overlap
     ethr =  4.16E-09,  avg # of iterations =  2.0

[...]

     total energy              =    -329.49247371 Ry
     Harris-Foulkes estimate   =    -329.49247372 Ry
     estimated scf accuracy    <          2.8E-10 Ry

     iteration #  8     ecut=    30.00 Ry     beta=0.70
     Davidson diagonalization with overlap
     ethr =  5.11E-13,  avg # of iterations =  3.0

     End of self-consistent calculation

          k = 0.0000 0.0000 0.0000 ( 22119 PWs)   bands (ev):

    -8.5160  -7.7849  -7.6646  -7.2329  -6.8444  -6.8128  -6.6036  -6.4909
    -6.3022  -6.0871  -5.9438  -5.7693  -5.7289  -5.6905  -5.4708  -5.3548
    -5.3132  -5.2581  -5.2055  -5.1822  -5.1697  -5.1203  -5.0030  -4.9370
    -4.8334  -4.7295  -4.4913  -3.7718  -2.4591  -2.2190  -0.5503  -0.1756
     0.4656   0.8335

     the Fermi energy is    -3.7370 ev

!    total energy              =    -329.49247370 Ry
     Harris-Foulkes estimate   =    -329.49247371 Ry
     estimated scf accuracy    <          3.9E-11 Ry

     The total energy is the sum of the following terms:

     one-electron contribution =    -607.87048134 Ry
     hartree contribution      =     325.36286152 Ry
     xc contribution           =     -51.39799264 Ry
     ewald contribution        =       4.41798014 Ry
     smearing contrib. (-TS)   =      -0.00484137 Ry

     convergence has been achieved in   8 iterations

     Forces acting on atoms (Ry/au):

     atom    1 type  1   force =     0.00032872    0.00000721    0.00057615
     atom    2 type  1   force =    -0.00001103    0.00009849   -0.00089031
     atom    3 type  1   force =     0.00036241   -0.00011812    0.00010310
     atom    4 type  1   force =    -0.00025075    0.00025402    0.00015854
     atom    5 type  1   force =    -0.00042935   -0.00024161    0.00005251

     Total force =     0.001340     Total SCF correction =     0.000025

     bfgs converged in  22 scf cycles and  21 bfgs steps
     (criteria: energy <  1.0E-04, force <  1.0E-03)

     End of BFGS Geometry Optimization

     Final energy   =    -329.4924736967 Ry
Begin final coordinates

ATOMIC_POSITIONS (bohr)
Au      -1.548857932   1.985327849  -1.095351366
Au      -0.711083694   3.885622853   3.660699423
Au       3.154108438   1.605150586   0.727589403
Au       3.977871839   3.358771822   5.820698199
Au       7.724929350   1.375555891   2.879078341
End final coordinates

     Writing output data file pwscf.save

     General routines

     Parallel routines

   This run was terminated on:   1:10:36  29Jul2017

   JOB DONE.