     Program PWSCF v.6.0 (svn rev. 13079) starts on 29Jul2017 at  0:56:46

     Current dimensions of program PWSCF are:
     Max number of different atomic species (ntypx) = 10
     Max number of k-points (npk) =  40000
     Max angular momentum in pseudopotentials (lmaxx) =  3
     Message from routine iosys:
     pot_extrapolation='second-order' not available, using 'atomic'
     Message from routine iosys:
     wfc_extrapolation='second-order' not available, using 'atomic'

     Subspace diagonalization in iterative solution of the eigenvalue problem:
     a serial algorithm will be used

     bravais-lattice index     =            1
     lattice parameter (alat)  =      20.0000  a.u.
     unit-cell volume          =    8000.0000 (a.u.)^3
     number of atoms/cell      =            5
     number of atomic types    =            1
     number of electrons       =        55.00
     number of Kohn-Sham states=           34
     kinetic-energy cutoff     =      30.0000  Ry
     charge density cutoff     =     120.0000  Ry
     convergence threshold     =      1.0E-08
     mixing beta               =       0.7000
     number of iterations used =            8  plain     mixing
     Exchange-correlation      = BLYP ( 1  3  1  3 0 0)
     nstep                     =           50

     celldm(1)=  20.000000  celldm(2)=   0.000000  celldm(3)=   0.000000
     celldm(4)=   0.000000  celldm(5)=   0.000000  celldm(6)=   0.000000

     crystal axes: (cart. coord. in units of alat)
               a(1) = (   1.000000   0.000000   0.000000 )
               a(2) = (   0.000000   1.000000   0.000000 )
               a(3) = (   0.000000   0.000000   1.000000 )

     reciprocal axes: (cart. coord. in units 2 pi/alat)
               b(1) = (  1.000000  0.000000  0.000000 )
               b(2) = (  0.000000  1.000000  0.000000 )
               b(3) = (  0.000000  0.000000  1.000000 )

     PseudoPot. # 1 for Au read from file:
     ./Au.blyp-d-hgh.UPF
     MD5 check sum: c10d8bae01f806c36a1643a1c69a8479
     Pseudo is Norm-conserving, Zval = 11.0
     Generated in analytical, separable form
     Using radial grid of 1279 points,  6 beta functions with:
                l(1) =   0
                l(2) =   0
                l(3) =   1
                l(4) =   1
                l(5) =   2
                l(6) =   2

     atomic species   valence    mass     pseudopotential
        Au            11.00    28.08600     Au( 1.00)

     No symmetry found

   Cartesian axes

     site n.     atom                  positions (alat units)
         1           Au  tau(   1) = (  -0.0747871   0.1272414  -0.0556586  )
         2           Au  tau(   2) = (  -0.0454169   0.1992376   0.1803559  )
         3           Au  tau(   3) = (   0.1590590   0.0830210   0.0280320  )
         4           Au  tau(   4) = (   0.1952487   0.1601435   0.2920366  )
         5           Au  tau(   5) = (   0.3751364   0.0620448   0.1550196  )

     number of k points=     1  Marzari-Vanderbilt smearing, width (Ry)=  0.0250
                       cart. coord. in units 2pi/alat
        k(    1) = (   0.0000000   0.0000000   0.0000000), wk =   2.0000000

     Initial potential from superposition of free atoms
     Check: negative starting charge=   -0.006360

     starting charge   54.99940, renormalised to   55.00000

     negative rho (up, down):  6.361E-03 0.000E+00
     Starting wfc are   45 randomized atomic wfcs

     Self-consistent Calculation

     iteration #  1     ecut=    30.00 Ry     beta=0.70
     Davidson diagonalization with overlap
     ethr =  1.00E-02,  avg # of iterations =  3.0

     Threshold (ethr) on eigenvalues was too large:
     Diagonalizing with lowered threshold

     Davidson diagonalization with overlap
     ethr =  4.19E-04,  avg # of iterations =  5.0

     negative rho (up, down):  8.744E-04 0.000E+00

     total energy              =    -329.37139307 Ry
     Harris-Foulkes estimate   =    -329.54662169 Ry
     estimated scf accuracy    <       0.28889531 Ry

[...]

     End of self-consistent calculation

          k = 0.0000 0.0000 0.0000 ( 22119 PWs)   bands (ev):

    -8.4932  -7.8816  -7.6380  -7.1545  -6.9331  -6.8783  -6.8244  -6.5492
    -6.2053  -6.1651  -6.0526  -5.7564  -5.7422  -5.6627  -5.4335  -5.3350
    -5.2914  -5.2639  -5.2212  -5.1590  -5.1455  -5.1379  -5.0131  -4.9136
    -4.9024  -4.6646  -4.4572  -3.6929  -2.4807  -2.1918  -0.5386  -0.1833
     0.4519   0.7662

     the Fermi energy is    -3.6539 ev

!    total energy              =    -329.48623442 Ry
     Harris-Foulkes estimate   =    -329.48623455 Ry
     estimated scf accuracy    <          8.8E-09 Ry

     The total energy is the sum of the following terms:

     one-electron contribution =    -608.64955815 Ry
     hartree contribution      =     325.74232415 Ry
     xc contribution           =     -51.41401692 Ry
     ewald contribution        =       4.84091409 Ry
     smearing contrib. (-TS)   =      -0.00589759 Ry

     convergence has been achieved in  11 iterations

     Forces acting on atoms (Ry/au):

     atom    1 type  1   force =    -0.00289034   -0.00685636   -0.02132251
     atom    2 type  1   force =     0.01743633    0.00252282    0.02265491
     atom    3 type  1   force =    -0.00601009    0.00384078    0.00544533
     atom    4 type  1   force =    -0.03098695    0.01266640    0.00754496
     atom    5 type  1   force =     0.02245105   -0.01217365   -0.01432268

     Total force =     0.058729     Total SCF correction =     0.000411

     BFGS Geometry Optimization

     number of scf cycles    =   1
     number of bfgs steps    =   0

     energy   new            =    -329.4862344185 Ry

     new trust radius        =       0.0343155222 bohr
     new conv_thr            =       0.0000000100 Ry

ATOMIC_POSITIONS (bohr)
Au      -1.498633337   2.537970643  -1.134494508
Au      -0.890902675   3.987274818   3.629773911
Au       3.175168906   1.664260782   0.566085325
Au       3.873988052   3.215537402   5.848276956
Au       7.525178054   1.228723355   3.086068315

     Writing output data file pwscf.save
     Check: negative starting charge=   -0.006360
     NEW-OLD atomic charge density approx. for the potential
     Check: negative starting charge=   -0.006329

[...]

     energy   old            =    -329.4862344185 Ry
     energy   new            =    -329.4891083676 Ry

     CASE: energy  _new < energy  _old

[...]

     number of scf cycles    =  39
     number of bfgs steps    =  38

     energy   old            =    -329.4935097104 Ry
     energy   new            =    -329.4935287399 Ry

     CASE: energy  _new < energy  _old

     new trust radius        =       0.0136474021 bohr
     new conv_thr            =            1.0E-10 Ry

ATOMIC_POSITIONS (bohr)
Au      -1.439338235   2.540549322  -1.274372955
Au      -0.758397225   4.219260589   3.570410434
Au       3.085620101   1.632102736   0.747069019
Au       3.832450245   3.378592601   5.823425847
Au       7.464464114   0.863261752   3.129177655

     Writing output data file pwscf.save
     Check: negative starting charge=   -0.006343
     NEW-OLD atomic charge density approx. for the potential
     Check: negative starting charge=   -0.006344

[...]

     Self-consistent Calculation

[...]

     Threshold (ethr) on eigenvalues was too large:
     Diagonalizing with lowered threshold

     Davidson diagonalization with overlap
     ethr =  6.85E-08,  avg # of iterations =  1.0

     negative rho (up, down):  2.540E-08 0.000E+00

[...]

     total energy              =    -329.49354514 Ry
     Harris-Foulkes estimate   =    -329.49354513 Ry
     estimated scf accuracy    <          2.5E-10 Ry

     iteration # 10     ecut=    30.00 Ry     beta=0.70
     Davidson diagonalization with overlap
     ethr =  4.56E-13,  avg # of iterations =  2.0

     End of self-consistent calculation

          k = 0.0000 0.0000 0.0000 ( 22119 PWs)   bands (ev):

    -8.5212  -7.7841  -7.6556  -7.2245  -6.8437  -6.8251  -6.6011  -6.4778
    -6.3046  -6.0853  -5.9417  -5.7687  -5.7296  -5.6848  -5.4589  -5.3536
    -5.3093  -5.2507  -5.2000  -5.1765  -5.1723  -5.1195  -4.9930  -4.9269
    -4.8322  -4.7356  -4.4822  -3.7714  -2.4173  -2.2111  -0.5313  -0.1828
     0.4593   0.7837

     the Fermi energy is    -3.7376 ev

!    total energy              =    -329.49354514 Ry
     Harris-Foulkes estimate   =    -329.49354514 Ry
     estimated scf accuracy    <          1.4E-11 Ry

     The total energy is the sum of the following terms:

     one-electron contribution =    -606.56322803 Ry
     hartree contribution      =     324.71624213 Ry
     xc contribution           =     -51.39935486 Ry
     ewald contribution        =       3.75745011 Ry
     smearing contrib. (-TS)   =      -0.00465449 Ry

     convergence has been achieved in  10 iterations

     Forces acting on atoms (Ry/au):

     atom    1 type  1   force =    -0.00093036   -0.00012382   -0.00094807
     atom    2 type  1   force =    -0.00019317    0.00010670    0.00030111
     atom    3 type  1   force =     0.00018088   -0.00000871    0.00016036
     atom    4 type  1   force =     0.00054844    0.00011185   -0.00040642
     atom    5 type  1   force =     0.00039421   -0.00008602    0.00089301

     Total force =     0.001848     Total SCF correction =     0.000018

     bfgs converged in  40 scf cycles and  39 bfgs steps
     (criteria: energy <  1.0E-04, force <  1.0E-03)

     End of BFGS Geometry Optimization

     Final energy   =    -329.4935451384 Ry
Begin final coordinates

ATOMIC_POSITIONS (bohr)
Au      -1.439338235   2.540549322  -1.274372955
Au      -0.758397225   4.219260589   3.570410434
Au       3.085620101   1.632102736   0.747069019
Au       3.832450245   3.378592601   5.823425847
Au       7.464464114   0.863261752   3.129177655
End final coordinates

     Writing output data file pwscf.save

     General routines

     Parallel routines

   This run was terminated on:   0:59:33  29Jul2017

   JOB DONE.