     Program PWSCF v.6.0 (svn rev. 13079) starts on 29Jul2017 at  0:54:41

     Current dimensions of program PWSCF are:
     Max number of different atomic species (ntypx) = 10
     Max number of k-points (npk) =  40000
     Max angular momentum in pseudopotentials (lmaxx) =  3
     Message from routine iosys:
     pot_extrapolation='second-order' not available, using 'atomic'
     Message from routine iosys:
     wfc_extrapolation='second-order' not available, using 'atomic'

     Subspace diagonalization in iterative solution of the eigenvalue problem:
     a serial algorithm will be used

     bravais-lattice index     =            1
     lattice parameter (alat)  =      20.0000  a.u.
     unit-cell volume          =    8000.0000 (a.u.)^3
     number of atoms/cell      =            5
     number of atomic types    =            1
     number of electrons       =        55.00
     number of Kohn-Sham states=           34
     kinetic-energy cutoff     =      30.0000  Ry
     charge density cutoff     =     120.0000  Ry
     convergence threshold     =      1.0E-08
     mixing beta               =       0.7000
     number of iterations used =            8  plain     mixing
     Exchange-correlation      = BLYP ( 1  3  1  3 0 0)
     nstep                     =           50

     celldm(1)=  20.000000  celldm(2)=   0.000000  celldm(3)=   0.000000
     celldm(4)=   0.000000  celldm(5)=   0.000000  celldm(6)=   0.000000

     crystal axes: (cart. coord. in units of alat)
               a(1) = (   1.000000   0.000000   0.000000 )
               a(2) = (   0.000000   1.000000   0.000000 )
               a(3) = (   0.000000   0.000000   1.000000 )

     reciprocal axes: (cart. coord. in units 2 pi/alat)
               b(1) = (  1.000000  0.000000  0.000000 )
               b(2) = (  0.000000  1.000000  0.000000 )
               b(3) = (  0.000000  0.000000  1.000000 )

     PseudoPot. # 1 for Au read from file:
     ./Au.blyp-d-hgh.UPF
     MD5 check sum: c10d8bae01f806c36a1643a1c69a8479
     Pseudo is Norm-conserving, Zval = 11.0
     Generated in analytical, separable form
     Using radial grid of 1279 points,  6 beta functions with:
                l(1) =   0
                l(2) =   0
                l(3) =   1
                l(4) =   1
                l(5) =   2
                l(6) =   2

     atomic species   valence    mass     pseudopotential
        Au            11.00    28.08600     Au( 1.00)

     No symmetry found

   Cartesian axes

     site n.     atom                  positions (alat units)
         1           Au  tau(   1) = (  -0.0956801   0.1996773  -0.0335355  )
         2           Au  tau(   2) = (   0.0020901   0.1123536   0.2205573  )
         3           Au  tau(   3) = (   0.1375557   0.1321328   0.0000702  )
         4           Au  tau(   4) = (   0.2239034   0.2138713   0.2884098  )
         5           Au  tau(   5) = (   0.3342867   0.0475383   0.1243305  )

     number of k points=     1  Marzari-Vanderbilt smearing, width (Ry)=  0.0250
                       cart. coord. in units 2pi/alat
        k(    1) = (   0.0000000   0.0000000   0.0000000), wk =   2.0000000

     Initial potential from superposition of free atoms
     Check: negative starting charge=   -0.006141

     starting charge   54.99940, renormalised to   55.00000

     negative rho (up, down):  6.141E-03 0.000E+00
     Starting wfc are   45 randomized atomic wfcs

     Self-consistent Calculation

     iteration #  1     ecut=    30.00 Ry     beta=0.70
     Davidson diagonalization with overlap
     ethr =  1.00E-02,  avg # of iterations =  3.0

     Threshold (ethr) on eigenvalues was too large:
     Diagonalizing with lowered threshold

     Davidson diagonalization with overlap
     ethr =  3.89E-04,  avg # of iterations =  6.0

     negative rho (up, down):  8.050E-04 0.000E+00

     total energy              =    -329.35023770 Ry
     Harris-Foulkes estimate   =    -329.51302406 Ry
     estimated scf accuracy    <       0.27167871 Ry

[...]

     End of self-consistent calculation

          k = 0.0000 0.0000 0.0000 ( 22119 PWs)   bands (ev):

    -8.3313  -7.7496  -7.5268  -7.2167  -6.9781  -6.7600  -6.6273  -6.4315
    -6.2625  -5.9404  -5.8318  -5.7192  -5.7073  -5.6086  -5.4993  -5.4225
    -5.2811  -5.2229  -5.1494  -5.1354  -5.0839  -4.9802  -4.9186  -4.8345
    -4.7623  -4.4456  -4.4019  -3.6957  -2.6794  -2.1621  -0.2611  -0.1214
     0.2712   0.6511

     the Fermi energy is    -3.6723 ev

!    total energy              =    -329.45628479 Ry
     Harris-Foulkes estimate   =    -329.45628487 Ry
     estimated scf accuracy    <          2.1E-09 Ry

     The total energy is the sum of the following terms:

     one-electron contribution =    -608.39926815 Ry
     hartree contribution      =     325.75997751 Ry
     xc contribution           =     -51.40732643 Ry
     ewald contribution        =       4.59234399 Ry
     smearing contrib. (-TS)   =      -0.00201171 Ry

     convergence has been achieved in  12 iterations

     Forces acting on atoms (Ry/au):

     atom    1 type  1   force =    -0.01621077   -0.00351071    0.01126377
     atom    2 type  1   force =    -0.01682396    0.01405117   -0.01581228
     atom    3 type  1   force =     0.00734883   -0.00014101   -0.00552644
     atom    4 type  1   force =     0.00660610   -0.00987350    0.00134452
     atom    5 type  1   force =     0.01907981   -0.00052596    0.00873043

     Total force =     0.042433     Total SCF correction =     0.000212

     BFGS Geometry Optimization

     number of scf cycles    =   1
     number of bfgs steps    =   0

     energy   new            =    -329.4562847865 Ry

     new trust radius        =       0.0270279390 bohr
     new conv_thr            =       0.0000000100 Ry

ATOMIC_POSITIONS (bohr)
Au      -1.929813773   3.990035291  -0.659447232
Au       0.024979038   2.261123172   4.395333715
Au       2.758462830   2.642514995  -0.004122440
Au       4.484675100   4.267552504   5.769540525
Au       6.704812805   0.950240038   2.495340432

     Writing output data file pwscf.save
     Check: negative starting charge=   -0.006141
     NEW-OLD atomic charge density approx. for the potential
     Check: negative starting charge=   -0.006128

[...]

     energy   old            =    -329.4562847865 Ry
     energy   new            =    -329.4580019468 Ry

     CASE: energy  _new < energy  _old

     WARNING: bfgs curvature condition failed, Theta= 0.884
     new trust radius        =       0.0297307329 bohr
     new conv_thr            =       0.0000000016 Ry

[...]

     WARNING: bfgs curvature condition failed, Theta= 0.880
     new trust radius        =       0.0420680953 bohr
     new conv_thr            =       0.0000000008 Ry

[...]

     iteration #  1     ecut=    30.00 Ry     beta=0.70
     Davidson diagonalization with overlap
     c_bands:  1 eigenvalues not converged
     ethr =  1.00E-06,  avg # of iterations = 20.0

[...]

     iteration #  1     ecut=    30.00 Ry     beta=0.70
     Davidson diagonalization with overlap
     c_bands:  1 eigenvalues not converged
     ethr =  1.00E-06,  avg # of iterations = 20.0

[...]

     number of scf cycles    =  33
     number of bfgs steps    =  32

     energy   old            =    -329.4921943200 Ry
     energy   new            =    -329.4922037862 Ry

     CASE: energy  _new < energy  _old

     new trust radius        =       0.0071117995 bohr
     new conv_thr            =            1.0E-10 Ry

ATOMIC_POSITIONS (bohr)
Au      -1.929222883   3.365757232  -0.740602714
Au      -0.641273555   3.930764969   4.239375760
Au       2.872027744   2.409607281   0.515241878
Au       4.221604853   3.023907534   5.799094492
Au       7.519979843   1.381428984   2.183535584

     Writing output data file pwscf.save
     Check: negative starting charge=   -0.006479
     NEW-OLD atomic charge density approx. for the potential
     Check: negative starting charge=   -0.006478

     negative rho (up, down):  2.294E-06 0.000E+00

     Self-consistent Calculation

[...]

     Threshold (ethr) on eigenvalues was too large:
     Diagonalizing with lowered threshold

     Davidson diagonalization with overlap
     ethr =  1.79E-08,  avg # of iterations =  2.0

[...]

     total energy              =    -329.49220939 Ry
     Harris-Foulkes estimate   =    -329.49220939 Ry
     estimated scf accuracy    <          1.5E-10 Ry

     iteration #  9     ecut=    30.00 Ry     beta=0.70
     Davidson diagonalization with overlap
     ethr =  2.80E-13,  avg # of iterations =  2.0

     End of self-consistent calculation

          k = 0.0000 0.0000 0.0000 ( 22119 PWs)   bands (ev):

    -8.5243  -7.7914  -7.6656  -7.2338  -6.8558  -6.8246  -6.5995  -6.4916
    -6.3087  -6.0877  -5.9474  -5.7691  -5.7333  -5.6842  -5.4662  -5.3580
    -5.3142  -5.2507  -5.2031  -5.1850  -5.1709  -5.1210  -4.9990  -4.9279
    -4.8467  -4.7222  -4.4902  -3.7791  -2.4649  -2.1976  -0.5586  -0.2222
     0.5037   0.8170

     the Fermi energy is    -3.7455 ev

!    total energy              =    -329.49220940 Ry
     Harris-Foulkes estimate   =    -329.49220939 Ry
     estimated scf accuracy    <          5.1E-11 Ry

     The total energy is the sum of the following terms:

     one-electron contribution =    -608.61654040 Ry
     hartree contribution      =     325.73545799 Ry
     xc contribution           =     -51.40115068 Ry
     ewald contribution        =       4.79460112 Ry
     smearing contrib. (-TS)   =      -0.00457743 Ry

     convergence has been achieved in   9 iterations

     Forces acting on atoms (Ry/au):

     atom    1 type  1   force =    -0.00056043    0.00024647   -0.00057729
     atom    2 type  1   force =     0.00026821    0.00002560    0.00004596
     atom    3 type  1   force =    -0.00024274   -0.00011249   -0.00006044
     atom    4 type  1   force =     0.00010421   -0.00013041   -0.00008883
     atom    5 type  1   force =     0.00043076   -0.00002918    0.00068059

     Total force =     0.001242     Total SCF correction =     0.000025

     bfgs converged in  34 scf cycles and  33 bfgs steps
     (criteria: energy <  1.0E-04, force <  1.0E-03)

     End of BFGS Geometry Optimization

     Final energy   =    -329.4922094019 Ry
Begin final coordinates

ATOMIC_POSITIONS (bohr)
Au      -1.929222883   3.365757232  -0.740602714
Au      -0.641273555   3.930764969   4.239375760
Au       2.872027744   2.409607281   0.515241878
Au       4.221604853   3.023907534   5.799094492
Au       7.519979843   1.381428984   2.183535584
End final coordinates

     Writing output data file pwscf.save

     General routines

     Parallel routines

   This run was terminated on:   0:56:46  29Jul2017

   JOB DONE.