     Program PWSCF v.6.0 (svn rev. 13079) starts on 29Jul2017 at  1:33:38

     Current dimensions of program PWSCF are:
     Max number of different atomic species (ntypx) = 10
     Max number of k-points (npk) =  40000
     Max angular momentum in pseudopotentials (lmaxx) =  3
     Message from routine iosys:
     pot_extrapolation='second-order' not available, using 'atomic'
     Message from routine iosys:
     wfc_extrapolation='second-order' not available, using 'atomic'

     Subspace diagonalization in iterative solution of the eigenvalue problem:
     a serial algorithm will be used

     bravais-lattice index     =            1
     lattice parameter (alat)  =      20.0000  a.u.
     unit-cell volume          =    8000.0000 (a.u.)^3
     number of atoms/cell      =            5
     number of atomic types    =            1
     number of electrons       =        55.00
     number of Kohn-Sham states=           34
     kinetic-energy cutoff     =      30.0000  Ry
     charge density cutoff     =     120.0000  Ry
     convergence threshold     =      1.0E-08
     mixing beta               =       0.7000
     number of iterations used =            8  plain     mixing
     Exchange-correlation      = BLYP ( 1  3  1  3 0 0)
     nstep                     =           50

     celldm(1)=  20.000000  celldm(2)=   0.000000  celldm(3)=   0.000000
     celldm(4)=   0.000000  celldm(5)=   0.000000  celldm(6)=   0.000000

     crystal axes: (cart. coord. in units of alat)
               a(1) = (   1.000000   0.000000   0.000000 )
               a(2) = (   0.000000   1.000000   0.000000 )
               a(3) = (   0.000000   0.000000   1.000000 )

     reciprocal axes: (cart. coord. in units 2 pi/alat)
               b(1) = (  1.000000  0.000000  0.000000 )
               b(2) = (  0.000000  1.000000  0.000000 )
               b(3) = (  0.000000  0.000000  1.000000 )

     PseudoPot. # 1 for Au read from file:
     ./Au.blyp-d-hgh.UPF
     MD5 check sum: c10d8bae01f806c36a1643a1c69a8479
     Pseudo is Norm-conserving, Zval = 11.0
     Generated in analytical, separable form
     Using radial grid of 1279 points,  6 beta functions with:
                l(1) =   0
                l(2) =   0
                l(3) =   1
                l(4) =   1
                l(5) =   2
                l(6) =   2

     atomic species   valence    mass     pseudopotential
        Au            11.00    28.08600     Au( 1.00)

     No symmetry found

   Cartesian axes

     site n.     atom                  positions (alat units)
         1           Au  tau(   1) = (  -0.1103402   0.1412046  -0.0229376  )
         2           Au  tau(   2) = (  -0.0046310   0.1220671   0.2124638  )
         3           Au  tau(   3) = (   0.1414178   0.0998236   0.0011500  )
         4           Au  tau(   4) = (   0.2208579   0.2116919   0.2816254  )
         5           Au  tau(   5) = (   0.3518234   0.0536799   0.1219922  )

     number of k points=     1  Marzari-Vanderbilt smearing, width (Ry)=  0.0250
                       cart. coord. in units 2pi/alat
        k(    1) = (   0.0000000   0.0000000   0.0000000), wk =   2.0000000

     Initial potential from superposition of free atoms
     Check: negative starting charge=   -0.006289

     starting charge   54.99940, renormalised to   55.00000

     negative rho (up, down):  6.289E-03 0.000E+00
     Starting wfc are   45 randomized atomic wfcs

     Self-consistent Calculation

     iteration #  1     ecut=    30.00 Ry     beta=0.70
     Davidson diagonalization with overlap
     ethr =  1.00E-02,  avg # of iterations =  3.0

     Threshold (ethr) on eigenvalues was too large:
     Diagonalizing with lowered threshold

     Davidson diagonalization with overlap
     ethr =  3.83E-04,  avg # of iterations =  8.0

     negative rho (up, down):  8.506E-04 0.000E+00

     total energy              =    -329.36784187 Ry
     Harris-Foulkes estimate   =    -329.52860529 Ry
     estimated scf accuracy    <       0.26977496 Ry

[...]

     End of self-consistent calculation

          k = 0.0000 0.0000 0.0000 ( 22119 PWs)   bands (ev):

    -8.3119  -7.7154  -7.6002  -7.2742  -7.0372  -6.7181  -6.6955  -6.5151
    -6.2113  -5.9858  -5.9206  -5.7499  -5.6406  -5.5790  -5.5500  -5.4698
    -5.2265  -5.2062  -5.1559  -5.1463  -5.1324  -5.0047  -4.9548  -4.9150
    -4.8773  -4.4633  -4.3865  -3.7184  -2.4597  -2.2707  -0.3603  -0.1781
     0.3728   0.6750

     the Fermi energy is    -3.7005 ev

!    total energy              =    -329.47393346 Ry
     Harris-Foulkes estimate   =    -329.47393352 Ry
     estimated scf accuracy    <          3.4E-09 Ry

     The total energy is the sum of the following terms:

     one-electron contribution =    -610.88608734 Ry
     hartree contribution      =     326.96431412 Ry
     xc contribution           =     -51.41793306 Ry
     ewald contribution        =       5.86662364 Ry
     smearing contrib. (-TS)   =      -0.00085082 Ry

     convergence has been achieved in  12 iterations

     Forces acting on atoms (Ry/au):

     atom    1 type  1   force =     0.00241424   -0.00475438   -0.00017767
     atom    2 type  1   force =    -0.01473274    0.00765245   -0.00035751
     atom    3 type  1   force =    -0.01429798    0.00197076   -0.01014253
     atom    4 type  1   force =     0.01191840   -0.00871159   -0.00018758
     atom    5 type  1   force =     0.01469808    0.00384276    0.01086529

     Total force =     0.034383     Total SCF correction =     0.000194

     BFGS Geometry Optimization

     number of scf cycles    =   1
     number of bfgs steps    =   0

     energy   new            =    -329.4739334630 Ry

     new trust radius        =       0.0186776568 bohr
     new conv_thr            =       0.0000000100 Ry

ATOMIC_POSITIONS (bohr)
Au      -2.204389757   2.819337620  -0.458928673
Au      -0.107353740   2.448994446   4.248918487
Au       2.814057019   1.998442762   0.012857472
Au       4.429077402   4.225126411   5.632321420
Au       7.051166076   1.077441761   2.450708294

     Writing output data file pwscf.save
     Check: negative starting charge=   -0.006289
     NEW-OLD atomic charge density approx. for the potential
     Check: negative starting charge=   -0.006293

[...]

     energy   old            =    -329.4739334630 Ry
     energy   new            =    -329.4749589238 Ry

     CASE: energy  _new < energy  _old

[...]

     WARNING: bfgs curvature condition failed, Theta= 0.399
     new trust radius        =       0.0913461517 bohr
     new conv_thr            =       0.0000000008 Ry

[...]

     iteration #  1     ecut=    30.00 Ry     beta=0.70
     Davidson diagonalization with overlap
     c_bands:  1 eigenvalues not converged
     ethr =  1.00E-06,  avg # of iterations = 20.0

[...]

     Threshold (ethr) on eigenvalues was too large:
     Diagonalizing with lowered threshold

     Davidson diagonalization with overlap
     ethr =  6.57E-08,  avg # of iterations =  1.0

[...]

     WARNING: bfgs curvature condition failed, Theta= 0.128
     new trust radius        =       0.0737824474 bohr
     new conv_thr            =            1.0E-10 Ry

[...]

     Self-consistent Calculation

[...]

     total energy              =    -329.49240689 Ry
     Harris-Foulkes estimate   =    -329.49240690 Ry
     estimated scf accuracy    <          5.2E-10 Ry

     iteration # 11     ecut=    30.00 Ry     beta=0.70
     Davidson diagonalization with overlap
     ethr =  9.43E-13,  avg # of iterations =  3.0

     End of self-consistent calculation

          k = 0.0000 0.0000 0.0000 ( 22119 PWs)   bands (ev):

    -8.5105  -7.7753  -7.6555  -7.2234  -6.8792  -6.8163  -6.5757  -6.4890
    -6.3009  -6.0771  -5.9498  -5.7634  -5.7201  -5.6819  -5.4542  -5.3609
    -5.3183  -5.2428  -5.2033  -5.1886  -5.1632  -5.1231  -5.0026  -4.9305
    -4.8778  -4.6917  -4.4975  -3.7815  -2.4648  -2.1985  -0.5425  -0.2003
     0.4959   0.8018

     the Fermi energy is    -3.7479 ev

!    total energy              =    -329.49240689 Ry
     Harris-Foulkes estimate   =    -329.49240689 Ry
     estimated scf accuracy    <          8.5E-11 Ry

     The total energy is the sum of the following terms:

     one-electron contribution =    -607.08103102 Ry
     hartree contribution      =     324.97230524 Ry
     xc contribution           =     -51.39748205 Ry
     ewald contribution        =       4.01833618 Ry
     smearing contrib. (-TS)   =      -0.00453524 Ry

     convergence has been achieved in  11 iterations

     Forces acting on atoms (Ry/au):

     atom    1 type  1   force =     0.00184920   -0.00003742    0.00088314
     atom    2 type  1   force =    -0.00044956    0.00070688   -0.00043267
     atom    3 type  1   force =    -0.00066576    0.00029331   -0.00203182
     atom    4 type  1   force =    -0.00154728   -0.00085846   -0.00180097
     atom    5 type  1   force =     0.00081339   -0.00010432    0.00338232

     Total force =     0.005314     Total SCF correction =     0.000042

     number of scf cycles    =  50
     number of bfgs steps    =  49

     energy   old            =    -329.4923208861 Ry
     energy   new            =    -329.4924068887 Ry

     CASE: energy  _new < energy  _old

     new trust radius        =       0.0387847344 bohr
     new conv_thr            =            1.0E-10 Ry

ATOMIC_POSITIONS (bohr)
Au      -1.962417815   2.565819725  -0.829233757
Au      -0.556752901   4.103189860   3.918886737
Au       2.795956955   1.612990489   0.636075439
Au       4.244782350   3.316754852   5.722993562
Au       7.460988412   0.970588075   2.437155020

     Writing output data file pwscf.save
     Check: negative starting charge=   -0.006381
     NEW-OLD atomic charge density approx. for the potential
     Check: negative starting charge=   -0.006381

     negative rho (up, down):  3.177E-04 0.000E+00

     Writing output data file pwscf.save

     General routines

     Parallel routines

   This run was terminated on:   1:37:43  29Jul2017

   JOB DONE.