     Program PWSCF v.6.0 (svn rev. 13079) starts on 29Jul2017 at  1:27:10

     Current dimensions of program PWSCF are:
     Max number of different atomic species (ntypx) = 10
     Max number of k-points (npk) =  40000
     Max angular momentum in pseudopotentials (lmaxx) =  3
     Message from routine iosys:
     pot_extrapolation='second-order' not available, using 'atomic'
     Message from routine iosys:
     wfc_extrapolation='second-order' not available, using 'atomic'

     Subspace diagonalization in iterative solution of the eigenvalue problem:
     a serial algorithm will be used

     bravais-lattice index     =            1
     lattice parameter (alat)  =      20.0000  a.u.
     unit-cell volume          =    8000.0000 (a.u.)^3
     number of atoms/cell      =            5
     number of atomic types    =            1
     number of electrons       =        55.00
     number of Kohn-Sham states=           34
     kinetic-energy cutoff     =      30.0000  Ry
     charge density cutoff     =     120.0000  Ry
     convergence threshold     =      1.0E-08
     mixing beta               =       0.7000
     number of iterations used =            8  plain     mixing
     Exchange-correlation      = BLYP ( 1  3  1  3 0 0)
     nstep                     =           50

     celldm(1)=  20.000000  celldm(2)=   0.000000  celldm(3)=   0.000000
     celldm(4)=   0.000000  celldm(5)=   0.000000  celldm(6)=   0.000000

     crystal axes: (cart. coord. in units of alat)
               a(1) = (   1.000000   0.000000   0.000000 )
               a(2) = (   0.000000   1.000000   0.000000 )
               a(3) = (   0.000000   0.000000   1.000000 )

     reciprocal axes: (cart. coord. in units 2 pi/alat)
               b(1) = (  1.000000  0.000000  0.000000 )
               b(2) = (  0.000000  1.000000  0.000000 )
               b(3) = (  0.000000  0.000000  1.000000 )

     PseudoPot. # 1 for Au read from file:
     ./Au.blyp-d-hgh.UPF
     MD5 check sum: c10d8bae01f806c36a1643a1c69a8479
     Pseudo is Norm-conserving, Zval = 11.0
     Generated in analytical, separable form
     Using radial grid of 1279 points,  6 beta functions with:
                l(1) =   0
                l(2) =   0
                l(3) =   1
                l(4) =   1
                l(5) =   2
                l(6) =   2

     atomic species   valence    mass     pseudopotential
        Au            11.00    28.08600     Au( 1.00)

     No symmetry found

   Cartesian axes

     site n.     atom                  positions (alat units)
         1           Au  tau(   1) = (  -0.0853421   0.1792615  -0.0518544  )
         2           Au  tau(   2) = (  -0.0390917   0.1936035   0.2061752  )
         3           Au  tau(   3) = (   0.1442476   0.1076459   0.0409927  )
         4           Au  tau(   4) = (   0.2089449   0.1766834   0.2887827  )
         5           Au  tau(   5) = (   0.3853056   0.0702250   0.1248338  )

     number of k points=     1  Marzari-Vanderbilt smearing, width (Ry)=  0.0250
                       cart. coord. in units 2pi/alat
        k(    1) = (   0.0000000   0.0000000   0.0000000), wk =   2.0000000

     Initial potential from superposition of free atoms
     Check: negative starting charge=   -0.006465

     starting charge   54.99940, renormalised to   55.00000

     negative rho (up, down):  6.465E-03 0.000E+00
     Starting wfc are   45 randomized atomic wfcs

     Self-consistent Calculation

     iteration #  1     ecut=    30.00 Ry     beta=0.70
     Davidson diagonalization with overlap
     ethr =  1.00E-02,  avg # of iterations =  3.0

     Threshold (ethr) on eigenvalues was too large:
     Diagonalizing with lowered threshold

     Davidson diagonalization with overlap
     ethr =  3.88E-04,  avg # of iterations =  5.0

     negative rho (up, down):  8.899E-04 0.000E+00

     total energy              =    -329.38664650 Ry
     Harris-Foulkes estimate   =    -329.54461896 Ry
     estimated scf accuracy    <       0.26661139 Ry

[...]

     End of self-consistent calculation

          k = 0.0000 0.0000 0.0000 ( 22119 PWs)   bands (ev):

    -8.4520  -7.7469  -7.7461  -7.1597  -6.7909  -6.6814  -6.5628  -6.5509
    -6.2365  -6.0803  -5.8365  -5.7846  -5.6709  -5.6331  -5.5014  -5.3544
    -5.3136  -5.2772  -5.1952  -5.1685  -5.1514  -5.1056  -5.0273  -4.9868
    -4.7638  -4.7386  -4.5428  -3.7583  -2.4904  -2.2798  -0.5295  -0.1450
     0.4219   0.7646

     the Fermi energy is    -3.7183 ev

!    total energy              =    -329.48759708 Ry
     Harris-Foulkes estimate   =    -329.48759713 Ry
     estimated scf accuracy    <          4.6E-09 Ry

     The total energy is the sum of the following terms:

     one-electron contribution =    -604.21526516 Ry
     hartree contribution      =     323.56038369 Ry
     xc contribution           =     -51.38223565 Ry
     ewald contribution        =       2.55560473 Ry
     smearing contrib. (-TS)   =      -0.00608469 Ry

     convergence has been achieved in  11 iterations

     Forces acting on atoms (Ry/au):

     atom    1 type  1   force =     0.00916146   -0.00487052    0.00957349
     atom    2 type  1   force =    -0.00231692    0.00484500    0.00019641
     atom    3 type  1   force =     0.00732679    0.00045770   -0.01271358
     atom    4 type  1   force =     0.00256385   -0.00324215    0.00099482
     atom    5 type  1   force =    -0.01673518    0.00280996    0.00194885

     Total force =     0.027451     Total SCF correction =     0.000228

     BFGS Geometry Optimization

     number of scf cycles    =   1
     number of bfgs steps    =   0

     energy   new            =    -329.4875970833 Ry

     new trust radius        =       0.0170809875 bohr
     new conv_thr            =       0.0000000100 Ry

ATOMIC_POSITIONS (bohr)
Au      -1.697680540   3.580359483  -1.027514505
Au      -0.784150920   3.876915003   4.123699414
Au       2.892277791   2.153376701   0.807140425
Au       4.181460848   3.530425848   5.776647818
Au       7.689376821   1.407309965   2.498624848

     Writing output data file pwscf.save
     Check: negative starting charge=   -0.006465
     NEW-OLD atomic charge density approx. for the potential
     Check: negative starting charge=   -0.006462

[...]

     energy   old            =    -329.4875970833 Ry
     energy   new            =    -329.4882967886 Ry

     CASE: energy  _new < energy  _old

     WARNING: bfgs curvature condition failed, Theta= 0.931
     new trust radius        =       0.0187890862 bohr
     new conv_thr            =       0.0000000007 Ry

[...]

     WARNING: bfgs curvature condition failed, Theta= 0.208
     new trust radius        =       0.0694752043 bohr
     new conv_thr            =       0.0000000001 Ry

[...]

     iteration #  1     ecut=    30.00 Ry     beta=0.70
     Davidson diagonalization with overlap
     c_bands:  1 eigenvalues not converged
     ethr =  1.00E-06,  avg # of iterations = 20.0

[...]

     WARNING: bfgs curvature condition failed, Theta= 0.569
     uphill step: resetting bfgs history

[...]

     number of scf cycles    =  38
     number of bfgs steps    =  37

     energy   old            =    -329.4928923575 Ry
     energy   new            =    -329.4929017530 Ry

     CASE: energy  _new < energy  _old

     new trust radius        =       0.0117385990 bohr
     new conv_thr            =            1.0E-10 Ry

ATOMIC_POSITIONS (bohr)
Au      -1.716388211   3.589970218  -0.849072281
Au      -0.607812702   4.312937610   4.139645766
Au       2.991187204   2.394994347   0.571022208
Au       4.111926201   3.088720833   5.855726203
Au       7.502371507   1.161763993   2.461276103

     Writing output data file pwscf.save
     Check: negative starting charge=   -0.006370
     NEW-OLD atomic charge density approx. for the potential
     Check: negative starting charge=   -0.006371

     negative rho (up, down):  8.500E-06 0.000E+00

     Self-consistent Calculation

[...]

     Threshold (ethr) on eigenvalues was too large:
     Diagonalizing with lowered threshold

     Davidson diagonalization with overlap
     ethr =  4.94E-08,  avg # of iterations =  1.0

[...]

     total energy              =    -329.49291439 Ry
     Harris-Foulkes estimate   =    -329.49291439 Ry
     estimated scf accuracy    <          4.0E-10 Ry

     iteration #  9     ecut=    30.00 Ry     beta=0.70
     Davidson diagonalization with overlap
     ethr =  7.21E-13,  avg # of iterations =  3.0

     End of self-consistent calculation

          k = 0.0000 0.0000 0.0000 ( 22119 PWs)   bands (ev):

    -8.5030  -7.7757  -7.6589  -7.2324  -6.8544  -6.8130  -6.6066  -6.4786
    -6.3136  -6.0712  -5.9493  -5.7704  -5.7296  -5.6801  -5.4529  -5.3619
    -5.3152  -5.2455  -5.1997  -5.1746  -5.1727  -5.1242  -4.9950  -4.9160
    -4.8332  -4.7423  -4.4764  -3.7791  -2.4458  -2.1897  -0.5437  -0.2178
     0.4845   0.7812

     the Fermi energy is    -3.7468 ev

!    total energy              =    -329.49291440 Ry
     Harris-Foulkes estimate   =    -329.49291439 Ry
     estimated scf accuracy    <          4.0E-11 Ry

     The total energy is the sum of the following terms:

     one-electron contribution =    -607.15952401 Ry
     hartree contribution      =     325.01534892 Ry
     xc contribution           =     -51.40011172 Ry
     ewald contribution        =       4.05567153 Ry
     smearing contrib. (-TS)   =      -0.00429912 Ry

     convergence has been achieved in   9 iterations

     Forces acting on atoms (Ry/au):

     atom    1 type  1   force =    -0.00014801    0.00049817   -0.00049704
     atom    2 type  1   force =     0.00025941    0.00037350    0.00032431
     atom    3 type  1   force =    -0.00082988    0.00008315    0.00000497
     atom    4 type  1   force =     0.00086046   -0.00085288   -0.00051977
     atom    5 type  1   force =    -0.00014198   -0.00010194    0.00068753

     Total force =     0.001941     Total SCF correction =     0.000033

     bfgs converged in  39 scf cycles and  38 bfgs steps
     (criteria: energy <  1.0E-04, force <  1.0E-03)

     End of BFGS Geometry Optimization

     Final energy   =    -329.4929144012 Ry
Begin final coordinates

ATOMIC_POSITIONS (bohr)
Au      -1.716388211   3.589970218  -0.849072281
Au      -0.607812702   4.312937610   4.139645766
Au       2.991187204   2.394994347   0.571022208
Au       4.111926201   3.088720833   5.855726203
Au       7.502371507   1.161763993   2.461276103
End final coordinates

     Writing output data file pwscf.save

     General routines

     Parallel routines

   This run was terminated on:   1:29:21  29Jul2017

   JOB DONE.