     Program PWSCF v.6.0 (svn rev. 13079) starts on 29Jul2017 at  1:26: 1

     Current dimensions of program PWSCF are:
     Max number of different atomic species (ntypx) = 10
     Max number of k-points (npk) =  40000
     Max angular momentum in pseudopotentials (lmaxx) =  3
     Message from routine iosys:
     pot_extrapolation='second-order' not available, using 'atomic'
     Message from routine iosys:
     wfc_extrapolation='second-order' not available, using 'atomic'

     Subspace diagonalization in iterative solution of the eigenvalue problem:
     a serial algorithm will be used

     bravais-lattice index     =            1
     lattice parameter (alat)  =      20.0000  a.u.
     unit-cell volume          =    8000.0000 (a.u.)^3
     number of atoms/cell      =            5
     number of atomic types    =            1
     number of electrons       =        55.00
     number of Kohn-Sham states=           34
     kinetic-energy cutoff     =      30.0000  Ry
     charge density cutoff     =     120.0000  Ry
     convergence threshold     =      1.0E-08
     mixing beta               =       0.7000
     number of iterations used =            8  plain     mixing
     Exchange-correlation      = BLYP ( 1  3  1  3 0 0)
     nstep                     =           50

     celldm(1)=  20.000000  celldm(2)=   0.000000  celldm(3)=   0.000000
     celldm(4)=   0.000000  celldm(5)=   0.000000  celldm(6)=   0.000000

     crystal axes: (cart. coord. in units of alat)
               a(1) = (   1.000000   0.000000   0.000000 )
               a(2) = (   0.000000   1.000000   0.000000 )
               a(3) = (   0.000000   0.000000   1.000000 )

     reciprocal axes: (cart. coord. in units 2 pi/alat)
               b(1) = (  1.000000  0.000000  0.000000 )
               b(2) = (  0.000000  1.000000  0.000000 )
               b(3) = (  0.000000  0.000000  1.000000 )

     PseudoPot. # 1 for Au read from file:
     ./Au.blyp-d-hgh.UPF
     MD5 check sum: c10d8bae01f806c36a1643a1c69a8479
     Pseudo is Norm-conserving, Zval = 11.0
     Generated in analytical, separable form
     Using radial grid of 1279 points,  6 beta functions with:
                l(1) =   0
                l(2) =   0
                l(3) =   1
                l(4) =   1
                l(5) =   2
                l(6) =   2

     atomic species   valence    mass     pseudopotential
        Au            11.00    28.08600     Au( 1.00)

     No symmetry found

   Cartesian axes

     site n.     atom                  positions (alat units)
         1           Au  tau(   1) = (  -0.0747160   0.1302337  -0.0627411  )
         2           Au  tau(   2) = (  -0.0364578   0.1927197   0.1815889  )
         3           Au  tau(   3) = (   0.1592966   0.0784137   0.0238910  )
         4           Au  tau(   4) = (   0.1884260   0.1551728   0.2966922  )
         5           Au  tau(   5) = (   0.3742584   0.0536292   0.1554801  )

     number of k points=     1  Marzari-Vanderbilt smearing, width (Ry)=  0.0250
                       cart. coord. in units 2pi/alat
        k(    1) = (   0.0000000   0.0000000   0.0000000), wk =   2.0000000

     Initial potential from superposition of free atoms
     Check: negative starting charge=   -0.006360

     starting charge   54.99940, renormalised to   55.00000

     negative rho (up, down):  6.360E-03 0.000E+00
     Starting wfc are   45 randomized atomic wfcs

     Self-consistent Calculation

     iteration #  1     ecut=    30.00 Ry     beta=0.70
     Davidson diagonalization with overlap
     ethr =  1.00E-02,  avg # of iterations =  3.0

     Threshold (ethr) on eigenvalues was too large:
     Diagonalizing with lowered threshold

     Davidson diagonalization with overlap
     ethr =  4.00E-04,  avg # of iterations =  5.0

     negative rho (up, down):  8.734E-04 0.000E+00

     total energy              =    -329.38234981 Ry
     Harris-Foulkes estimate   =    -329.54739291 Ry
     estimated scf accuracy    <       0.27538555 Ry

[...]

     End of self-consistent calculation

          k = 0.0000 0.0000 0.0000 ( 22119 PWs)   bands (ev):

    -8.3659  -7.7052  -7.6288  -7.1947  -6.9476  -6.7353  -6.6894  -6.4501
    -6.3013  -6.0239  -5.9827  -5.7467  -5.7029  -5.6579  -5.3955  -5.3734
    -5.3330  -5.2110  -5.1886  -5.1821  -5.1655  -5.1400  -5.0162  -4.8722
    -4.8613  -4.7237  -4.4134  -3.7925  -2.4871  -2.1575  -0.5314  -0.2298
     0.4331   0.8042

     the Fermi energy is    -3.7714 ev

!    total energy              =    -329.49054790 Ry
     Harris-Foulkes estimate   =    -329.49054788 Ry
     estimated scf accuracy    <          3.5E-09 Ry

     The total energy is the sum of the following terms:

     one-electron contribution =    -605.08427673 Ry
     hartree contribution      =     324.00831199 Ry
     xc contribution           =     -51.40120063 Ry
     ewald contribution        =       2.98854259 Ry
     smearing contrib. (-TS)   =      -0.00192512 Ry

     convergence has been achieved in  13 iterations

     Forces acting on atoms (Ry/au):

     atom    1 type  1   force =     0.00400096   -0.00321360   -0.00439917
     atom    2 type  1   force =    -0.00106826    0.00086131   -0.00260795
     atom    3 type  1   force =    -0.00719645    0.00707576    0.01175228
     atom    4 type  1   force =     0.00299850   -0.00173086   -0.00152148
     atom    5 type  1   force =     0.00126525   -0.00299260   -0.00322368

     Total force =     0.018155     Total SCF correction =     0.000284

     BFGS Geometry Optimization

     number of scf cycles    =   1
     number of bfgs steps    =   0

     energy   new            =    -329.4905478986 Ry

     new trust radius        =       0.0154910050 bohr
     new conv_thr            =       0.0000000100 Ry

ATOMIC_POSITIONS (bohr)
Au      -1.490319040   2.601460401  -1.259222165
Au      -0.730225259   3.855255306   3.629171052
Au       3.178735549   1.575348759   0.489571275
Au       3.771517503   3.101725139   5.932322516
Au       7.486433247   1.069591395   3.106377323

     Writing output data file pwscf.save
     Check: negative starting charge=   -0.006360
     NEW-OLD atomic charge density approx. for the potential
     Check: negative starting charge=   -0.006362

[...]

     energy   old            =    -329.4905478986 Ry
     energy   new            =    -329.4908663636 Ry

     CASE: energy  _new < energy  _old

     WARNING: bfgs curvature condition failed, Theta= 0.855
     new trust radius        =       0.0170401055 bohr
     new conv_thr            =       0.0000000003 Ry

[...]

     number of scf cycles    =  20
     number of bfgs steps    =  19

     energy   old            =    -329.4931680610 Ry
     energy   new            =    -329.4931853928 Ry

     CASE: energy  _new < energy  _old

     new trust radius        =       0.0121216873 bohr
     new conv_thr            =            1.0E-10 Ry

ATOMIC_POSITIONS (bohr)
Au      -1.449206198   2.531245197  -1.289475295
Au      -0.778165700   3.996764153   3.628840230
Au       3.108175824   1.652398865   0.674013591
Au       3.821411090   3.114467871   5.856431023
Au       7.513926985   0.908504914   3.028410452

     Writing output data file pwscf.save
     Check: negative starting charge=   -0.006361
     NEW-OLD atomic charge density approx. for the potential
     Check: negative starting charge=   -0.006355

[...]

     Self-consistent Calculation

[...]

     Threshold (ethr) on eigenvalues was too large:
     Diagonalizing with lowered threshold

     Davidson diagonalization with overlap
     ethr =  5.07E-08,  avg # of iterations =  1.0

     negative rho (up, down):  1.241E-08 0.000E+00

[...]

     total energy              =    -329.49320295 Ry
     Harris-Foulkes estimate   =    -329.49320292 Ry
     estimated scf accuracy    <          1.7E-10 Ry

     iteration # 10     ecut=    30.00 Ry     beta=0.70
     Davidson diagonalization with overlap
     ethr =  3.08E-13,  avg # of iterations =  2.0

     End of self-consistent calculation

          k = 0.0000 0.0000 0.0000 ( 22119 PWs)   bands (ev):

    -8.5198  -7.7898  -7.6542  -7.2340  -6.8470  -6.8227  -6.6171  -6.4834
    -6.3074  -6.0828  -5.9532  -5.7687  -5.7304  -5.6849  -5.4623  -5.3548
    -5.3116  -5.2519  -5.1952  -5.1786  -5.1739  -5.1231  -4.9982  -4.9244
    -4.8360  -4.7342  -4.4815  -3.7669  -2.4279  -2.2114  -0.5401  -0.1886
     0.4541   0.7981

     the Fermi energy is    -3.7325 ev

!    total energy              =    -329.49320293 Ry
     Harris-Foulkes estimate   =    -329.49320295 Ry
     estimated scf accuracy    <          2.1E-11 Ry

     The total energy is the sum of the following terms:

     one-electron contribution =    -607.27565782 Ry
     hartree contribution      =     325.06872489 Ry
     xc contribution           =     -51.40031007 Ry
     ewald contribution        =       4.11881087 Ry
     smearing contrib. (-TS)   =      -0.00477081 Ry

     convergence has been achieved in  10 iterations

     Forces acting on atoms (Ry/au):

     atom    1 type  1   force =    -0.00028865    0.00027286   -0.00089288
     atom    2 type  1   force =    -0.00020779   -0.00004297   -0.00005100
     atom    3 type  1   force =    -0.00000600   -0.00024273   -0.00011393
     atom    4 type  1   force =    -0.00013611    0.00060493    0.00056485
     atom    5 type  1   force =     0.00063854   -0.00059209    0.00049297

     Total force =     0.001667     Total SCF correction =     0.000018

     bfgs converged in  21 scf cycles and  20 bfgs steps
     (criteria: energy <  1.0E-04, force <  1.0E-03)

     End of BFGS Geometry Optimization

     Final energy   =    -329.4932029336 Ry
Begin final coordinates

ATOMIC_POSITIONS (bohr)
Au      -1.449206198   2.531245197  -1.289475295
Au      -0.778165700   3.996764153   3.628840230
Au       3.108175824   1.652398865   0.674013591
Au       3.821411090   3.114467871   5.856431023
Au       7.513926985   0.908504914   3.028410452
End final coordinates

     Writing output data file pwscf.save

     General routines

     Parallel routines

   This run was terminated on:   1:27:10  29Jul2017

   JOB DONE.