     Program PWSCF v.6.0 (svn rev. 13079) starts on 29Jul2017 at  1:17:47

     Current dimensions of program PWSCF are:
     Max number of different atomic species (ntypx) = 10
     Max number of k-points (npk) =  40000
     Max angular momentum in pseudopotentials (lmaxx) =  3
     Message from routine iosys:
     pot_extrapolation='second-order' not available, using 'atomic'
     Message from routine iosys:
     wfc_extrapolation='second-order' not available, using 'atomic'

     Subspace diagonalization in iterative solution of the eigenvalue problem:
     a serial algorithm will be used

     bravais-lattice index     =            1
     lattice parameter (alat)  =      20.0000  a.u.
     unit-cell volume          =    8000.0000 (a.u.)^3
     number of atoms/cell      =            5
     number of atomic types    =            1
     number of electrons       =        55.00
     number of Kohn-Sham states=           34
     kinetic-energy cutoff     =      30.0000  Ry
     charge density cutoff     =     120.0000  Ry
     convergence threshold     =      1.0E-08
     mixing beta               =       0.7000
     number of iterations used =            8  plain     mixing
     Exchange-correlation      = BLYP ( 1  3  1  3 0 0)
     nstep                     =           50

     celldm(1)=  20.000000  celldm(2)=   0.000000  celldm(3)=   0.000000
     celldm(4)=   0.000000  celldm(5)=   0.000000  celldm(6)=   0.000000

     crystal axes: (cart. coord. in units of alat)
               a(1) = (   1.000000   0.000000   0.000000 )
               a(2) = (   0.000000   1.000000   0.000000 )
               a(3) = (   0.000000   0.000000   1.000000 )

     reciprocal axes: (cart. coord. in units 2 pi/alat)
               b(1) = (  1.000000  0.000000  0.000000 )
               b(2) = (  0.000000  1.000000  0.000000 )
               b(3) = (  0.000000  0.000000  1.000000 )

     PseudoPot. # 1 for Au read from file:
     ./Au.blyp-d-hgh.UPF
     MD5 check sum: c10d8bae01f806c36a1643a1c69a8479
     Pseudo is Norm-conserving, Zval = 11.0
     Generated in analytical, separable form
     Using radial grid of 1279 points,  6 beta functions with:
                l(1) =   0
                l(2) =   0
                l(3) =   1
                l(4) =   1
                l(5) =   2
                l(6) =   2

     atomic species   valence    mass     pseudopotential
        Au            11.00    28.08600     Au( 1.00)

     No symmetry found

   Cartesian axes

     site n.     atom                  positions (alat units)
         1           Au  tau(   1) = (  -0.0864178   0.0936362  -0.0389620  )
         2           Au  tau(   2) = (  -0.0423878   0.1799170   0.1956514  )
         3           Au  tau(   3) = (   0.1545085   0.0706137   0.0249053  )
         4           Au  tau(   4) = (   0.2015224   0.2013053   0.2692598  )
         5           Au  tau(   5) = (   0.3736336   0.0615471   0.1460200  )

     number of k points=     1  Marzari-Vanderbilt smearing, width (Ry)=  0.0250
                       cart. coord. in units 2pi/alat
        k(    1) = (   0.0000000   0.0000000   0.0000000), wk =   2.0000000

     Initial potential from superposition of free atoms
     Check: negative starting charge=   -0.006354

     starting charge   54.99940, renormalised to   55.00000

     negative rho (up, down):  6.354E-03 0.000E+00
     Starting wfc are   45 randomized atomic wfcs

     Self-consistent Calculation

     iteration #  1     ecut=    30.00 Ry     beta=0.70
     Davidson diagonalization with overlap
     ethr =  1.00E-02,  avg # of iterations =  3.0

     Threshold (ethr) on eigenvalues was too large:
     Diagonalizing with lowered threshold

     Davidson diagonalization with overlap
     ethr =  4.04E-04,  avg # of iterations =  6.0

     negative rho (up, down):  8.630E-04 0.000E+00

     total energy              =    -329.37669136 Ry
     Harris-Foulkes estimate   =    -329.54473377 Ry
     estimated scf accuracy    <       0.27940829 Ry

[...]

     End of self-consistent calculation

          k = 0.0000 0.0000 0.0000 ( 22119 PWs)   bands (ev):

    -8.4337  -7.7479  -7.6395  -7.1688  -6.9821  -6.7936  -6.7644  -6.4520
    -6.2550  -6.0742  -5.9883  -5.7687  -5.7328  -5.6643  -5.4235  -5.3239
    -5.2955  -5.2230  -5.1758  -5.1739  -5.1648  -5.1335  -4.9586  -4.8958
    -4.8421  -4.6760  -4.3781  -3.7894  -2.4572  -2.1569  -0.5193  -0.2114
     0.5339   0.7312

     the Fermi energy is    -3.7748 ev

!    total energy              =    -329.48763752 Ry
     Harris-Foulkes estimate   =    -329.48763754 Ry
     estimated scf accuracy    <          3.4E-09 Ry

     The total energy is the sum of the following terms:

     one-electron contribution =    -609.37893171 Ry
     hartree contribution      =     326.15962050 Ry
     xc contribution           =     -51.42016927 Ry
     ewald contribution        =       5.15242913 Ry
     smearing contrib. (-TS)   =      -0.00058616 Ry

     convergence has been achieved in  13 iterations

     Forces acting on atoms (Ry/au):

     atom    1 type  1   force =    -0.00701803   -0.00123180   -0.01042206
     atom    2 type  1   force =    -0.00062409    0.00092376   -0.00056641
     atom    3 type  1   force =    -0.00437961    0.00464211    0.01155965
     atom    4 type  1   force =     0.00089866   -0.00006978    0.00052688
     atom    5 type  1   force =     0.01112308   -0.00426429   -0.00109805

     Total force =     0.021898     Total SCF correction =     0.000264

     BFGS Geometry Optimization

     number of scf cycles    =   1
     number of bfgs steps    =   0

     energy   new            =    -329.4876375222 Ry

     new trust radius        =       0.0132043782 bohr
     new conv_thr            =       0.0000000100 Ry

ATOMIC_POSITIONS (bohr)
Au      -1.735374034   1.871491201  -0.789662057
Au      -0.848381093   3.599262759   3.912461587
Au       3.085791389   1.416915113   0.509665645
Au       4.031346663   4.026035218   5.385722879
Au       7.483795076   1.226678709   2.919300946

     Writing output data file pwscf.save
     Check: negative starting charge=   -0.006354
     NEW-OLD atomic charge density approx. for the potential
     Check: negative starting charge=   -0.006349

[...]

     energy   old            =    -329.4876375222 Ry
     energy   new            =    -329.4880900462 Ry

     CASE: energy  _new < energy  _old

     WARNING: bfgs curvature condition failed, Theta= 0.904
     new trust radius        =       0.0145248160 bohr
     new conv_thr            =       0.0000000005 Ry

[...]

     WARNING: bfgs curvature condition failed, Theta= 0.347
     new trust radius        =       0.0732326291 bohr
     new conv_thr            =            1.0E-10 Ry

[...]

     CASE: energy  _new > energy  _old

[...]

     number of scf cycles    =  39
     number of bfgs steps    =  37

     energy   old            =    -329.4929381703 Ry
     energy   new            =    -329.4929421849 Ry

     CASE: energy  _new < energy  _old

     new trust radius        =       0.0046554449 bohr
     new conv_thr            =            1.0E-10 Ry

ATOMIC_POSITIONS (bohr)
Au      -1.818751931   1.946575242  -0.880051346
Au      -0.682736471   4.190472238   3.626896358
Au       2.914384326   1.362891680   0.787849913
Au       4.075300982   3.619081226   5.604458504
Au       7.528981095   1.021362615   2.798335571

     Writing output data file pwscf.save
     Check: negative starting charge=   -0.006398
     NEW-OLD atomic charge density approx. for the potential
     Check: negative starting charge=   -0.006397

     negative rho (up, down):  4.880E-08 0.000E+00

     Self-consistent Calculation

[...]

     Threshold (ethr) on eigenvalues was too large:
     Diagonalizing with lowered threshold

     Davidson diagonalization with overlap
     ethr =  6.45E-09,  avg # of iterations =  2.0

[...]

     total energy              =    -329.49294704 Ry
     Harris-Foulkes estimate   =    -329.49294710 Ry
     estimated scf accuracy    <          6.5E-10 Ry

     iteration #  8     ecut=    30.00 Ry     beta=0.70
     Davidson diagonalization with overlap
     ethr =  1.18E-12,  avg # of iterations =  2.0

     End of self-consistent calculation

          k = 0.0000 0.0000 0.0000 ( 22119 PWs)   bands (ev):

    -8.5260  -7.7969  -7.6659  -7.2426  -6.8517  -6.8226  -6.6218  -6.4935
    -6.3090  -6.0833  -5.9563  -5.7739  -5.7310  -5.6887  -5.4652  -5.3557
    -5.3124  -5.2514  -5.2000  -5.1795  -5.1699  -5.1199  -5.0017  -4.9228
    -4.8303  -4.7308  -4.4807  -3.7728  -2.4562  -2.1906  -0.5393  -0.1713
     0.5031   0.7981

     the Fermi energy is    -3.7393 ev

!    total energy              =    -329.49294700 Ry
     Harris-Foulkes estimate   =    -329.49294704 Ry
     estimated scf accuracy    <          9.5E-11 Ry

     The total energy is the sum of the following terms:

     one-electron contribution =    -608.02804890 Ry
     hartree contribution      =     325.44117289 Ry
     xc contribution           =     -51.40190376 Ry
     ewald contribution        =       4.50038776 Ry
     smearing contrib. (-TS)   =      -0.00455499 Ry

     convergence has been achieved in   8 iterations

     Forces acting on atoms (Ry/au):

     atom    1 type  1   force =    -0.00086098    0.00046985   -0.00032243
     atom    2 type  1   force =     0.00006148    0.00021159    0.00047529
     atom    3 type  1   force =     0.00052091   -0.00006639    0.00021137
     atom    4 type  1   force =     0.00028423    0.00022732   -0.00041060
     atom    5 type  1   force =    -0.00000563   -0.00084237    0.00004637

     Total force =     0.001635     Total SCF correction =     0.000041

     bfgs converged in  40 scf cycles and  38 bfgs steps
     (criteria: energy <  1.0E-04, force <  1.0E-03)

     End of BFGS Geometry Optimization

     Final energy   =    -329.4929470007 Ry
Begin final coordinates

ATOMIC_POSITIONS (bohr)
Au      -1.818751931   1.946575242  -0.880051346
Au      -0.682736471   4.190472238   3.626896358
Au       2.914384326   1.362891680   0.787849913
Au       4.075300982   3.619081226   5.604458504
Au       7.528981095   1.021362615   2.798335571
End final coordinates

     Writing output data file pwscf.save

     General routines

     Parallel routines

   This run was terminated on:   1:20:57  29Jul2017

   JOB DONE.