     Program PWSCF v.6.0 (svn rev. 13079) starts on 29Jul2017 at  0:39:54

     Current dimensions of program PWSCF are:
     Max number of different atomic species (ntypx) = 10
     Max number of k-points (npk) =  40000
     Max angular momentum in pseudopotentials (lmaxx) =  3
     Message from routine iosys:
     pot_extrapolation='second-order' not available, using 'atomic'
     Message from routine iosys:
     wfc_extrapolation='second-order' not available, using 'atomic'

     Subspace diagonalization in iterative solution of the eigenvalue problem:
     a serial algorithm will be used

     bravais-lattice index     =            1
     lattice parameter (alat)  =      20.0000  a.u.
     unit-cell volume          =    8000.0000 (a.u.)^3
     number of atoms/cell      =            5
     number of atomic types    =            1
     number of electrons       =        55.00
     number of Kohn-Sham states=           34
     kinetic-energy cutoff     =      30.0000  Ry
     charge density cutoff     =     120.0000  Ry
     convergence threshold     =      1.0E-08
     mixing beta               =       0.7000
     number of iterations used =            8  plain     mixing
     Exchange-correlation      = BLYP ( 1  3  1  3 0 0)
     nstep                     =           50

     celldm(1)=  20.000000  celldm(2)=   0.000000  celldm(3)=   0.000000
     celldm(4)=   0.000000  celldm(5)=   0.000000  celldm(6)=   0.000000

     crystal axes: (cart. coord. in units of alat)
               a(1) = (   1.000000   0.000000   0.000000 )
               a(2) = (   0.000000   1.000000   0.000000 )
               a(3) = (   0.000000   0.000000   1.000000 )

     reciprocal axes: (cart. coord. in units 2 pi/alat)
               b(1) = (  1.000000  0.000000  0.000000 )
               b(2) = (  0.000000  1.000000  0.000000 )
               b(3) = (  0.000000  0.000000  1.000000 )

     PseudoPot. # 1 for Au read from file:
     ./Au.blyp-d-hgh.UPF
     MD5 check sum: c10d8bae01f806c36a1643a1c69a8479
     Pseudo is Norm-conserving, Zval = 11.0
     Generated in analytical, separable form
     Using radial grid of 1279 points,  6 beta functions with:
                l(1) =   0
                l(2) =   0
                l(3) =   1
                l(4) =   1
                l(5) =   2
                l(6) =   2

     atomic species   valence    mass     pseudopotential
        Au            11.00    28.08600     Au( 1.00)

     No symmetry found

   Cartesian axes

     site n.     atom                  positions (alat units)
         1           Au  tau(   1) = (  -0.1042731   0.0607004  -0.0356911  )
         2           Au  tau(   2) = (   0.0068497   0.1317178   0.1939196  )
         3           Au  tau(   3) = (   0.1403745   0.0837709  -0.0101017  )
         4           Au  tau(   4) = (   0.2141566   0.2548834   0.2859910  )
         5           Au  tau(   5) = (   0.3261299   0.0633059   0.1445198  )

     number of k points=     1  Marzari-Vanderbilt smearing, width (Ry)=  0.0250
                       cart. coord. in units 2pi/alat
        k(    1) = (   0.0000000   0.0000000   0.0000000), wk =   2.0000000

     Initial potential from superposition of free atoms
     Check: negative starting charge=   -0.006369

     starting charge   54.99940, renormalised to   55.00000

     negative rho (up, down):  6.369E-03 0.000E+00
     Starting wfc are   45 randomized atomic wfcs

     Self-consistent Calculation

     iteration #  1     ecut=    30.00 Ry     beta=0.70
     Davidson diagonalization with overlap
     ethr =  1.00E-02,  avg # of iterations =  3.0

     Threshold (ethr) on eigenvalues was too large:
     Diagonalizing with lowered threshold

     Davidson diagonalization with overlap
     ethr =  3.99E-04,  avg # of iterations =  7.0

     negative rho (up, down):  8.441E-04 0.000E+00

     total energy              =    -329.35627656 Ry
     Harris-Foulkes estimate   =    -329.51989098 Ry
     estimated scf accuracy    <       0.27505769 Ry

[...]

     End of self-consistent calculation

          k = 0.0000 0.0000 0.0000 ( 22119 PWs)   bands (ev):

    -8.4350  -7.8551  -7.7162  -7.3197  -6.9285  -6.8717  -6.6973  -6.4535
    -6.2556  -5.9756  -5.8324  -5.7844  -5.7029  -5.5687  -5.5368  -5.4800
    -5.2349  -5.1899  -5.1641  -5.1359  -5.1214  -5.0170  -4.9553  -4.8836
    -4.8035  -4.5577  -4.3079  -3.6870  -2.4999  -2.1689  -0.3737  -0.1423
     0.3693   0.5037

     the Fermi energy is    -3.6675 ev

!    total energy              =    -329.46375206 Ry
     Harris-Foulkes estimate   =    -329.46375208 Ry
     estimated scf accuracy    <          9.4E-09 Ry

     The total energy is the sum of the following terms:

     one-electron contribution =    -610.59072279 Ry
     hartree contribution      =     326.80551200 Ry
     xc contribution           =     -51.43569546 Ry
     ewald contribution        =       5.75870064 Ry
     smearing contrib. (-TS)   =      -0.00154645 Ry

     convergence has been achieved in  11 iterations

     Forces acting on atoms (Ry/au):

     atom    1 type  1   force =    -0.01960189   -0.00030666    0.00365935
     atom    2 type  1   force =    -0.01483371    0.01276214    0.01345465
     atom    3 type  1   force =     0.00652967   -0.00698419   -0.04169377
     atom    4 type  1   force =    -0.00270539   -0.01485702   -0.00186638
     atom    5 type  1   force =     0.03061132    0.00938573    0.02644615

     Total force =     0.068902     Total SCF correction =     0.000367

     BFGS Geometry Optimization

     number of scf cycles    =   1
     number of bfgs steps    =   0

     energy   new            =    -329.4637520570 Ry

     new trust radius        =       0.0427759996 bohr
     new conv_thr            =       0.0000000100 Ry

ATOMIC_POSITIONS (bohr)
Au      -2.105062894   1.213700344  -0.710161647
Au       0.122161288   2.647119136   3.891846652
Au       2.814019672   1.668433811  -0.243727772
Au       4.280426612   5.082809976   5.717953622
Au       6.553209321   1.275504732   2.916842146

     Writing output data file pwscf.save
     Check: negative starting charge=   -0.006369
     NEW-OLD atomic charge density approx. for the potential
     Check: negative starting charge=   -0.006334

[...]

     energy   old            =    -329.4637520570 Ry
     energy   new            =    -329.4677817725 Ry

     CASE: energy  _new < energy  _old

[...]

     WARNING: bfgs curvature condition failed, Theta= 0.597
     new trust radius        =       0.1205729051 bohr
     new conv_thr            =       0.0000000004 Ry

[...]

     WARNING: info=  8 for Hessian
     uphill step: resetting bfgs history

[...]

     Threshold (ethr) on eigenvalues was too large:
     Diagonalizing with lowered threshold

     Davidson diagonalization with overlap
     ethr =  7.14E-08,  avg # of iterations =  1.0

[...]

     WARNING: bfgs curvature condition failed, Theta= 0.911
     new trust radius        =       0.0808821766 bohr
     new conv_thr            =       0.0000000003 Ry

[...]

     Self-consistent Calculation

[...]

     total energy              =    -329.49317077 Ry
     Harris-Foulkes estimate   =    -329.49317079 Ry
     estimated scf accuracy    <          4.3E-10 Ry

     iteration # 10     ecut=    30.00 Ry     beta=0.70
     Davidson diagonalization with overlap
     ethr =  7.79E-13,  avg # of iterations =  2.0

     End of self-consistent calculation

          k = 0.0000 0.0000 0.0000 ( 22119 PWs)   bands (ev):

    -8.5058  -7.7733  -7.6603  -7.2256  -6.8543  -6.8129  -6.5849  -6.4786
    -6.3062  -6.0774  -5.9350  -5.7652  -5.7267  -5.6647  -5.4512  -5.3580
    -5.3054  -5.2463  -5.1975  -5.1728  -5.1650  -5.1140  -4.9839  -4.9259
    -4.8445  -4.7141  -4.4887  -3.7541  -2.3893  -2.2310  -0.5187  -0.1932
     0.3979   0.7330

     the Fermi energy is    -3.7178 ev

!    total energy              =    -329.49317077 Ry
     Harris-Foulkes estimate   =    -329.49317077 Ry
     estimated scf accuracy    <          7.1E-11 Ry

     The total energy is the sum of the following terms:

     one-electron contribution =    -603.91450644 Ry
     hartree contribution      =     323.40048663 Ry
     xc contribution           =     -51.39782623 Ry
     ewald contribution        =       2.42388966 Ry
     smearing contrib. (-TS)   =      -0.00521439 Ry

     convergence has been achieved in  10 iterations

     Forces acting on atoms (Ry/au):

     atom    1 type  1   force =     0.00082212   -0.00064175   -0.00160162
     atom    2 type  1   force =    -0.00153812    0.00015000    0.00227924
     atom    3 type  1   force =     0.00059340   -0.00151338   -0.00059426
     atom    4 type  1   force =     0.00210831    0.00205463   -0.00060951
     atom    5 type  1   force =    -0.00198570   -0.00004950    0.00052615

     Total force =     0.005243     Total SCF correction =     0.000032

     number of scf cycles    =  50
     number of bfgs steps    =  49

     energy   old            =    -329.4929400318 Ry
     energy   new            =    -329.4931707748 Ry

     CASE: energy  _new < energy  _old

     new trust radius        =       0.0262062606 bohr
     new conv_thr            =       0.0000000002 Ry

ATOMIC_POSITIONS (bohr)
Au      -2.206201984   1.436668812  -0.402854303
Au       0.839471517   3.456436049   3.093617291
Au       2.798037986   0.086237796  -0.620316525
Au       4.123920023   4.932405936   6.629260247
Au       6.109526458   1.975819407   2.873046289

     Writing output data file pwscf.save
     Check: negative starting charge=   -0.006204
     NEW-OLD atomic charge density approx. for the potential
     Check: negative starting charge=   -0.006179

     negative rho (up, down):  1.238E-04 0.000E+00

     Writing output data file pwscf.save

     General routines

     Parallel routines

   This run was terminated on:   0:44:46  29Jul2017

   JOB DONE.