     Program PWSCF v.6.0 (svn rev. 13079) starts on 29Jul2017 at  1:10:36

     Current dimensions of program PWSCF are:
     Max number of different atomic species (ntypx) = 10
     Max number of k-points (npk) =  40000
     Max angular momentum in pseudopotentials (lmaxx) =  3
     Message from routine iosys:
     pot_extrapolation='second-order' not available, using 'atomic'
     Message from routine iosys:
     wfc_extrapolation='second-order' not available, using 'atomic'

     Subspace diagonalization in iterative solution of the eigenvalue problem:
     a serial algorithm will be used

     bravais-lattice index     =            1
     lattice parameter (alat)  =      20.0000  a.u.
     unit-cell volume          =    8000.0000 (a.u.)^3
     number of atoms/cell      =            5
     number of atomic types    =            1
     number of electrons       =        55.00
     number of Kohn-Sham states=           34
     kinetic-energy cutoff     =      30.0000  Ry
     charge density cutoff     =     120.0000  Ry
     convergence threshold     =      1.0E-08
     mixing beta               =       0.7000
     number of iterations used =            8  plain     mixing
     Exchange-correlation      = BLYP ( 1  3  1  3 0 0)
     nstep                     =           50

     celldm(1)=  20.000000  celldm(2)=   0.000000  celldm(3)=   0.000000
     celldm(4)=   0.000000  celldm(5)=   0.000000  celldm(6)=   0.000000

     crystal axes: (cart. coord. in units of alat)
               a(1) = (   1.000000   0.000000   0.000000 )
               a(2) = (   0.000000   1.000000   0.000000 )
               a(3) = (   0.000000   0.000000   1.000000 )

     reciprocal axes: (cart. coord. in units 2 pi/alat)
               b(1) = (  1.000000  0.000000  0.000000 )
               b(2) = (  0.000000  1.000000  0.000000 )
               b(3) = (  0.000000  0.000000  1.000000 )

     PseudoPot. # 1 for Au read from file:
     ./Au.blyp-d-hgh.UPF
     MD5 check sum: c10d8bae01f806c36a1643a1c69a8479
     Pseudo is Norm-conserving, Zval = 11.0
     Generated in analytical, separable form
     Using radial grid of 1279 points,  6 beta functions with:
                l(1) =   0
                l(2) =   0
                l(3) =   1
                l(4) =   1
                l(5) =   2
                l(6) =   2

     atomic species   valence    mass     pseudopotential
        Au            11.00    28.08600     Au( 1.00)

     No symmetry found

   Cartesian axes

     site n.     atom                  positions (alat units)
         1           Au  tau(   1) = (  -0.0517084   0.0103292   0.0162024  )
         2           Au  tau(   2) = (   0.0314350   0.1776823   0.2000880  )
         3           Au  tau(   3) = (   0.1576436   0.1746624   0.0294718  )
         4           Au  tau(   4) = (   0.2415009   0.2300835   0.2872635  )
         5           Au  tau(   5) = (   0.2536233  -0.0053522   0.2173100  )

     number of k points=     1  Marzari-Vanderbilt smearing, width (Ry)=  0.0250
                       cart. coord. in units 2pi/alat
        k(    1) = (   0.0000000   0.0000000   0.0000000), wk =   2.0000000

     Initial potential from superposition of free atoms
     Check: negative starting charge=   -0.006243

     starting charge   54.99940, renormalised to   55.00000

     negative rho (up, down):  6.243E-03 0.000E+00
     Starting wfc are   45 randomized atomic wfcs

     Self-consistent Calculation

     iteration #  1     ecut=    30.00 Ry     beta=0.70
     Davidson diagonalization with overlap
     ethr =  1.00E-02,  avg # of iterations =  3.0

     Threshold (ethr) on eigenvalues was too large:
     Diagonalizing with lowered threshold

     Davidson diagonalization with overlap
     ethr =  6.13E-04,  avg # of iterations =  2.0

     negative rho (up, down):  7.339E-04 0.000E+00

     total energy              =    -329.11936901 Ry
     Harris-Foulkes estimate   =    -329.36341867 Ry
     estimated scf accuracy    <       0.38190289 Ry

[...]

     End of self-consistent calculation

          k = 0.0000 0.0000 0.0000 ( 22119 PWs)   bands (ev):

    -9.7377  -9.0810  -8.5436  -8.2177  -7.6584  -7.3009  -6.9573  -6.8108
    -6.7103  -6.1051  -5.9939  -5.9706  -5.7928  -5.4392  -5.3195  -5.2161
    -5.2049  -5.1846  -5.1208  -5.0419  -5.0193  -4.9861  -4.9099  -4.8252
    -4.7127  -4.2996  -4.1835  -3.2619  -2.9323  -2.1780  -0.1993   0.1566
     0.3008   0.5759

     the Fermi energy is    -3.2365 ev

!    total energy              =    -329.28408939 Ry
     Harris-Foulkes estimate   =    -329.28408941 Ry
     estimated scf accuracy    <          2.4E-09 Ry

     The total energy is the sum of the following terms:

     one-electron contribution =    -659.02461918 Ry
     hartree contribution      =     350.74196627 Ry
     xc contribution           =     -51.58783782 Ry
     ewald contribution        =      30.59662353 Ry
     smearing contrib. (-TS)   =      -0.01022218 Ry

     convergence has been achieved in  13 iterations

     Forces acting on atoms (Ry/au):

     atom    1 type  1   force =    -0.00134692    0.00696256   -0.00264416
     atom    2 type  1   force =    -0.30403208   -0.01675476    0.22760678
     atom    3 type  1   force =     0.19276257   -0.01361109   -0.28379115
     atom    4 type  1   force =     0.09904266    0.06242229    0.06529904
     atom    5 type  1   force =     0.01357377   -0.03901900   -0.00647051

     Total force =     0.531203     Total SCF correction =     0.000202

     BFGS Geometry Optimization

     number of scf cycles    =   1
     number of bfgs steps    =   0

     energy   new            =    -329.2840893873 Ry

     new trust radius        =       0.3801592774 bohr
     new conv_thr            =       0.0000000100 Ry

ATOMIC_POSITIONS (bohr)
Au      -1.035514917   0.213547556   0.321403842
Au       0.324668917   3.536892244   4.229366782
Au       3.345633574   3.479637911   0.305644848
Au       4.929060659   4.664091285   5.810570038
Au       5.086038768  -0.146062997   4.339730490

     Writing output data file pwscf.save
     Check: negative starting charge=   -0.006243
     NEW-OLD atomic charge density approx. for the potential
     Check: negative starting charge=   -0.005975

[...]

     energy   old            =    -329.2840893873 Ry
     energy   new            =    -329.4079723655 Ry

     CASE: energy  _new < energy  _old

[...]

     WARNING: bfgs curvature condition failed, Theta= 0.999
     new trust radius        =       0.1117132118 bohr
     new conv_thr            =       0.0000000007 Ry

[...]

     WARNING: bfgs curvature condition failed, Theta= 0.933
     new trust radius        =       0.0249245524 bohr
     new conv_thr            =            1.0E-10 Ry

[...]

     Self-consistent Calculation

[...]

     Threshold (ethr) on eigenvalues was too large:
     Diagonalizing with lowered threshold

     Davidson diagonalization with overlap
     ethr =  9.99E-08,  avg # of iterations =  1.0

[...]

     total energy              =    -329.48616405 Ry
     Harris-Foulkes estimate   =    -329.48616405 Ry
     estimated scf accuracy    <          1.5E-10 Ry

     iteration # 11     ecut=    30.00 Ry     beta=0.70
     Davidson diagonalization with overlap
     ethr =  2.73E-13,  avg # of iterations =  2.0

     End of self-consistent calculation

          k = 0.0000 0.0000 0.0000 ( 22119 PWs)   bands (ev):

    -8.2202  -7.5326  -7.4899  -7.3375  -7.0356  -6.6385  -6.3517  -6.2503
    -6.1959  -6.1487  -6.1389  -5.7147  -5.6264  -5.6119  -5.5164  -5.4941
    -5.2673  -5.2207  -5.2152  -5.0684  -5.0489  -5.0088  -4.9148  -4.8806
    -4.8498  -4.6937  -4.3091  -3.7867  -2.5354  -2.0571  -0.4674  -0.2703
     0.3464   0.7749

     the Fermi energy is    -3.7803 ev

!    total energy              =    -329.48616405 Ry
     Harris-Foulkes estimate   =    -329.48616405 Ry
     estimated scf accuracy    <          1.4E-11 Ry

     The total energy is the sum of the following terms:

     one-electron contribution =    -597.21924590 Ry
     hartree contribution      =     320.16923323 Ry
     xc contribution           =     -51.40843999 Ry
     ewald contribution        =      -1.02848204 Ry
     smearing contrib. (-TS)   =       0.00077064 Ry

     convergence has been achieved in  11 iterations

     Forces acting on atoms (Ry/au):

     atom    1 type  1   force =    -0.00011855   -0.00002813   -0.00095604
     atom    2 type  1   force =    -0.00023013    0.00110570    0.00115523
     atom    3 type  1   force =    -0.00019628   -0.00042804    0.00012355
     atom    4 type  1   force =     0.00024721    0.00008360   -0.00072207
     atom    5 type  1   force =     0.00029774   -0.00073313    0.00039933

     Total force =     0.002270     Total SCF correction =     0.000014

     number of scf cycles    =  50
     number of bfgs steps    =  49

     energy   old            =    -329.4861540676 Ry
     energy   new            =    -329.4861640480 Ry

     CASE: energy  _new < energy  _old

     new trust radius        =       0.0088721348 bohr
     new conv_thr            =            1.0E-10 Ry

ATOMIC_POSITIONS (bohr)
Au      -1.821248456   1.789543169  -0.428338068
Au       0.237886209   3.815622714   3.813400720
Au       3.049036058   0.739009510   0.726790080
Au       4.208954242   4.221918087   6.976455771
Au       6.975258947   1.182012520   3.918407498

     Writing output data file pwscf.save
     Check: negative starting charge=   -0.006126
     NEW-OLD atomic charge density approx. for the potential
     Check: negative starting charge=   -0.006125

     negative rho (up, down):  1.502E-06 0.000E+00

     Writing output data file pwscf.save

     General routines

     Parallel routines

   This run was terminated on:   1:13:40  29Jul2017

   JOB DONE.