     Program PWSCF v.6.0 (svn rev. 13079) starts on 29Jul2017 at  1:31:17

     Current dimensions of program PWSCF are:
     Max number of different atomic species (ntypx) = 10
     Max number of k-points (npk) =  40000
     Max angular momentum in pseudopotentials (lmaxx) =  3
     Message from routine iosys:
     pot_extrapolation='second-order' not available, using 'atomic'
     Message from routine iosys:
     wfc_extrapolation='second-order' not available, using 'atomic'

     Subspace diagonalization in iterative solution of the eigenvalue problem:
     a serial algorithm will be used

     bravais-lattice index     =            1
     lattice parameter (alat)  =      20.0000  a.u.
     unit-cell volume          =    8000.0000 (a.u.)^3
     number of atoms/cell      =            5
     number of atomic types    =            1
     number of electrons       =        55.00
     number of Kohn-Sham states=           34
     kinetic-energy cutoff     =      30.0000  Ry
     charge density cutoff     =     120.0000  Ry
     convergence threshold     =      1.0E-08
     mixing beta               =       0.7000
     number of iterations used =            8  plain     mixing
     Exchange-correlation      = BLYP ( 1  3  1  3 0 0)
     nstep                     =           50

     celldm(1)=  20.000000  celldm(2)=   0.000000  celldm(3)=   0.000000
     celldm(4)=   0.000000  celldm(5)=   0.000000  celldm(6)=   0.000000

     crystal axes: (cart. coord. in units of alat)
               a(1) = (   1.000000   0.000000   0.000000 )
               a(2) = (   0.000000   1.000000   0.000000 )
               a(3) = (   0.000000   0.000000   1.000000 )

     reciprocal axes: (cart. coord. in units 2 pi/alat)
               b(1) = (  1.000000  0.000000  0.000000 )
               b(2) = (  0.000000  1.000000  0.000000 )
               b(3) = (  0.000000  0.000000  1.000000 )

     PseudoPot. # 1 for Au read from file:
     ./Au.blyp-d-hgh.UPF
     MD5 check sum: c10d8bae01f806c36a1643a1c69a8479
     Pseudo is Norm-conserving, Zval = 11.0
     Generated in analytical, separable form
     Using radial grid of 1279 points,  6 beta functions with:
                l(1) =   0
                l(2) =   0
                l(3) =   1
                l(4) =   1
                l(5) =   2
                l(6) =   2

     atomic species   valence    mass     pseudopotential
        Au            11.00    28.08600     Au( 1.00)

     No symmetry found

   Cartesian axes

     site n.     atom                  positions (alat units)
         1           Au  tau(   1) = (  -0.0753502   0.0868957  -0.0592993  )
         2           Au  tau(   2) = (  -0.0372540   0.1671488   0.1857485  )
         3           Au  tau(   3) = (   0.1605666   0.0690827   0.0275683  )
         4           Au  tau(   4) = (   0.1987341   0.2093555   0.2742176  )
         5           Au  tau(   5) = (   0.3735898   0.0628254   0.1604037  )

     number of k points=     1  Marzari-Vanderbilt smearing, width (Ry)=  0.0250
                       cart. coord. in units 2pi/alat
        k(    1) = (   0.0000000   0.0000000   0.0000000), wk =   2.0000000

     Initial potential from superposition of free atoms
     Check: negative starting charge=   -0.006291

     starting charge   54.99940, renormalised to   55.00000

     negative rho (up, down):  6.291E-03 0.000E+00
     Starting wfc are   45 randomized atomic wfcs

     Self-consistent Calculation

     iteration #  1     ecut=    30.00 Ry     beta=0.70
     Davidson diagonalization with overlap
     ethr =  1.00E-02,  avg # of iterations =  3.0

     Threshold (ethr) on eigenvalues was too large:
     Diagonalizing with lowered threshold

     Davidson diagonalization with overlap
     ethr =  4.02E-04,  avg # of iterations =  5.0

     negative rho (up, down):  8.591E-04 0.000E+00

     total energy              =    -329.38091474 Ry
     Harris-Foulkes estimate   =    -329.54586925 Ry
     estimated scf accuracy    <       0.27516189 Ry

[...]

     End of self-consistent calculation

          k = 0.0000 0.0000 0.0000 ( 22119 PWs)   bands (ev):

    -8.4178  -7.7141  -7.6140  -7.1915  -6.9959  -6.7612  -6.6712  -6.4424
    -6.2381  -6.0208  -5.9918  -5.7473  -5.7132  -5.6741  -5.4492  -5.3433
    -5.3187  -5.2331  -5.2023  -5.1940  -5.1591  -5.1313  -4.9660  -4.9450
    -4.8697  -4.6363  -4.4434  -3.7814  -2.4264  -2.2374  -0.4998  -0.1916
     0.4368   0.6915

     the Fermi energy is    -3.7564 ev

!    total energy              =    -329.48900152 Ry
     Harris-Foulkes estimate   =    -329.48900158 Ry
     estimated scf accuracy    <          7.2E-09 Ry

     The total energy is the sum of the following terms:

     one-electron contribution =    -606.41248154 Ry
     hartree contribution      =     324.66759451 Ry
     xc contribution           =     -51.40117635 Ry
     ewald contribution        =       3.65963784 Ry
     smearing contrib. (-TS)   =      -0.00257598 Ry

     convergence has been achieved in  12 iterations

     Forces acting on atoms (Ry/au):

     atom    1 type  1   force =    -0.00057816   -0.00092822    0.00267857
     atom    2 type  1   force =    -0.00198793   -0.00010011   -0.01130608
     atom    3 type  1   force =    -0.00473716    0.00364845    0.00686164
     atom    4 type  1   force =     0.00036496   -0.00211121    0.00185447
     atom    5 type  1   force =     0.00693828   -0.00050891   -0.00008859

     Total force =     0.016716     Total SCF correction =     0.000272

     BFGS Geometry Optimization

     number of scf cycles    =   1
     number of bfgs steps    =   0

     energy   new            =    -329.4890015171 Ry

     new trust radius        =       0.0114799571 bohr
     new conv_thr            =       0.0000000100 Ry

ATOMIC_POSITIONS (bohr)
Au      -1.507581158   1.736984777  -1.183308432
Au      -0.747068934   3.342875893   3.703664917
Au       3.206594844   1.385302453   0.558227636
Au       3.975046965   4.184998791   5.486207467
Au       7.478734284   1.255999085   3.207985412

     Writing output data file pwscf.save
     Check: negative starting charge=   -0.006291
     NEW-OLD atomic charge density approx. for the potential
     Check: negative starting charge=   -0.006291

[...]

     energy   old            =    -329.4890015171 Ry
     energy   new            =    -329.4892613151 Ry

     CASE: energy  _new < energy  _old

     WARNING: bfgs curvature condition failed, Theta= 0.931
     new trust radius        =       0.0126279528 bohr
     new conv_thr            =       0.0000000003 Ry

[...]

     WARNING: bfgs curvature condition failed, Theta= 0.167
     new trust radius        =       0.0580770276 bohr
     new conv_thr            =            1.0E-10 Ry

[...]

     number of scf cycles    =  32
     number of bfgs steps    =  31

     energy   old            =    -329.4926119650 Ry
     energy   new            =    -329.4926244163 Ry

     CASE: energy  _new < energy  _old

     new trust radius        =       0.0083411665 bohr
     new conv_thr            =            1.0E-10 Ry

ATOMIC_POSITIONS (bohr)
Au      -1.476554766   1.457809109  -1.137668139
Au      -0.828166417   3.886086346   3.390595813
Au       3.180558600   1.335016869   0.809232629
Au       3.856042050   3.830503458   5.592900369
Au       7.673846534   1.396745219   3.117716329

     Writing output data file pwscf.save
     Check: negative starting charge=   -0.006404
     NEW-OLD atomic charge density approx. for the potential
     Check: negative starting charge=   -0.006402

     negative rho (up, down):  7.938E-06 0.000E+00

     Self-consistent Calculation

[...]

     Threshold (ethr) on eigenvalues was too large:
     Diagonalizing with lowered threshold

     Davidson diagonalization with overlap
     ethr =  4.72E-08,  avg # of iterations =  1.0

[...]

     total energy              =    -329.49263926 Ry
     Harris-Foulkes estimate   =    -329.49263927 Ry
     estimated scf accuracy    <          6.2E-10 Ry

     iteration #  9     ecut=    30.00 Ry     beta=0.70
     Davidson diagonalization with overlap
     ethr =  1.12E-12,  avg # of iterations =  2.0

     End of self-consistent calculation

          k = 0.0000 0.0000 0.0000 ( 22119 PWs)   bands (ev):

    -8.5133  -7.7820  -7.6617  -7.2328  -6.8474  -6.8182  -6.6057  -6.4821
    -6.3107  -6.0806  -5.9494  -5.7702  -5.7289  -5.6867  -5.4611  -5.3619
    -5.3150  -5.2519  -5.1958  -5.1795  -5.1737  -5.1199  -4.9977  -4.9224
    -4.8314  -4.7380  -4.4794  -3.7745  -2.4529  -2.2086  -0.5424  -0.1596
     0.4655   0.8401

     the Fermi energy is    -3.7413 ev

!    total energy              =    -329.49263926 Ry
     Harris-Foulkes estimate   =    -329.49263926 Ry
     estimated scf accuracy    <          9.8E-11 Ry

     The total energy is the sum of the following terms:

     one-electron contribution =    -607.44442305 Ry
     hartree contribution      =     325.15391476 Ry
     xc contribution           =     -51.39959940 Ry
     ewald contribution        =       4.20197084 Ry
     smearing contrib. (-TS)   =      -0.00450241 Ry

     convergence has been achieved in   9 iterations

     Forces acting on atoms (Ry/au):

     atom    1 type  1   force =     0.00073490   -0.00042154    0.00050284
     atom    2 type  1   force =    -0.00004112   -0.00004665   -0.00031684
     atom    3 type  1   force =    -0.00060281    0.00062645    0.00053149
     atom    4 type  1   force =     0.00021534    0.00016584   -0.00001610
     atom    5 type  1   force =    -0.00030631   -0.00032409   -0.00070139

     Total force =     0.001697     Total SCF correction =     0.000039

     bfgs converged in  33 scf cycles and  32 bfgs steps
     (criteria: energy <  1.0E-04, force <  1.0E-03)

     End of BFGS Geometry Optimization

     Final energy   =    -329.4926392575 Ry
Begin final coordinates

ATOMIC_POSITIONS (bohr)
Au      -1.476554766   1.457809109  -1.137668139
Au      -0.828166417   3.886086346   3.390595813
Au       3.180558600   1.335016869   0.809232629
Au       3.856042050   3.830503458   5.592900369
Au       7.673846534   1.396745219   3.117716329
End final coordinates

     Writing output data file pwscf.save

     General routines

     Parallel routines

   This run was terminated on:   1:33:37  29Jul2017

   JOB DONE.