     Program PWSCF v.6.0 (svn rev. 13079) starts on 29Jul2017 at  1: 7:18

     Current dimensions of program PWSCF are:
     Max number of different atomic species (ntypx) = 10
     Max number of k-points (npk) =  40000
     Max angular momentum in pseudopotentials (lmaxx) =  3
     Message from routine iosys:
     pot_extrapolation='second-order' not available, using 'atomic'
     Message from routine iosys:
     wfc_extrapolation='second-order' not available, using 'atomic'

     Subspace diagonalization in iterative solution of the eigenvalue problem:
     a serial algorithm will be used

     bravais-lattice index     =            1
     lattice parameter (alat)  =      20.0000  a.u.
     unit-cell volume          =    8000.0000 (a.u.)^3
     number of atoms/cell      =            5
     number of atomic types    =            1
     number of electrons       =        55.00
     number of Kohn-Sham states=           34
     kinetic-energy cutoff     =      30.0000  Ry
     charge density cutoff     =     120.0000  Ry
     convergence threshold     =      1.0E-08
     mixing beta               =       0.7000
     number of iterations used =            8  plain     mixing
     Exchange-correlation      = BLYP ( 1  3  1  3 0 0)
     nstep                     =           50

     celldm(1)=  20.000000  celldm(2)=   0.000000  celldm(3)=   0.000000
     celldm(4)=   0.000000  celldm(5)=   0.000000  celldm(6)=   0.000000

     crystal axes: (cart. coord. in units of alat)
               a(1) = (   1.000000   0.000000   0.000000 )
               a(2) = (   0.000000   1.000000   0.000000 )
               a(3) = (   0.000000   0.000000   1.000000 )

     reciprocal axes: (cart. coord. in units 2 pi/alat)
               b(1) = (  1.000000  0.000000  0.000000 )
               b(2) = (  0.000000  1.000000  0.000000 )
               b(3) = (  0.000000  0.000000  1.000000 )

     PseudoPot. # 1 for Au read from file:
     ./Au.blyp-d-hgh.UPF
     MD5 check sum: c10d8bae01f806c36a1643a1c69a8479
     Pseudo is Norm-conserving, Zval = 11.0
     Generated in analytical, separable form
     Using radial grid of 1279 points,  6 beta functions with:
                l(1) =   0
                l(2) =   0
                l(3) =   1
                l(4) =   1
                l(5) =   2
                l(6) =   2

     atomic species   valence    mass     pseudopotential
        Au            11.00    28.08600     Au( 1.00)

     No symmetry found

   Cartesian axes

     site n.     atom                  positions (alat units)
         1           Au  tau(   1) = (  -0.1180192   0.0806964  -0.0016654  )
         2           Au  tau(   2) = (  -0.0212389   0.1191002   0.2324982  )
         3           Au  tau(   3) = (   0.1552688   0.0719588   0.0088816  )
         4           Au  tau(   4) = (   0.2198849   0.1981827   0.2618228  )
         5           Au  tau(   5) = (   0.3857064   0.0682542   0.1234230  )

     number of k points=     1  Marzari-Vanderbilt smearing, width (Ry)=  0.0250
                       cart. coord. in units 2pi/alat
        k(    1) = (   0.0000000   0.0000000   0.0000000), wk =   2.0000000

     Initial potential from superposition of free atoms
     Check: negative starting charge=   -0.006435

     starting charge   54.99940, renormalised to   55.00000

     negative rho (up, down):  6.435E-03 0.000E+00
     Starting wfc are   45 randomized atomic wfcs

     Self-consistent Calculation

     iteration #  1     ecut=    30.00 Ry     beta=0.70
     Davidson diagonalization with overlap
     ethr =  1.00E-02,  avg # of iterations =  3.0

     Threshold (ethr) on eigenvalues was too large:
     Diagonalizing with lowered threshold

     Davidson diagonalization with overlap
     ethr =  3.88E-04,  avg # of iterations =  6.0

     negative rho (up, down):  8.678E-04 0.000E+00

     total energy              =    -329.35981188 Ry
     Harris-Foulkes estimate   =    -329.52355595 Ry
     estimated scf accuracy    <       0.27230189 Ry

[...]

     End of self-consistent calculation

          k = 0.0000 0.0000 0.0000 ( 22119 PWs)   bands (ev):

    -8.0178  -7.4926  -7.4580  -7.1177  -6.8827  -6.7827  -6.5521  -6.3060
    -6.1500  -6.0750  -5.7834  -5.6646  -5.6258  -5.5789  -5.4953  -5.3716
    -5.3208  -5.2436  -5.2057  -5.1974  -5.1292  -5.0817  -5.0325  -4.9688
    -4.8288  -4.6962  -4.3943  -3.7728  -2.7586  -2.2129  -0.4468  -0.2014
     0.4618   0.6596

     the Fermi energy is    -3.7517 ev

!    total energy              =    -329.47116193 Ry
     Harris-Foulkes estimate   =    -329.47116195 Ry
     estimated scf accuracy    <          8.3E-09 Ry

     The total energy is the sum of the following terms:

     one-electron contribution =    -597.46739311 Ry
     hartree contribution      =     320.28758251 Ry
     xc contribution           =     -51.36389119 Ry
     ewald contribution        =      -0.92551216 Ry
     smearing contrib. (-TS)   =      -0.00194798 Ry

     convergence has been achieved in  12 iterations

     Forces acting on atoms (Ry/au):

     atom    1 type  1   force =     0.03001189   -0.00025195    0.00217444
     atom    2 type  1   force =     0.00152188    0.00017737   -0.01504910
     atom    3 type  1   force =    -0.02585598    0.00399464    0.02502795
     atom    4 type  1   force =    -0.00132216   -0.00195502    0.00019176
     atom    5 type  1   force =    -0.00435563   -0.00196505   -0.01234506

     Total force =     0.051245     Total SCF correction =     0.000353

     BFGS Geometry Optimization

     number of scf cycles    =   1
     number of bfgs steps    =   0

     energy   new            =    -329.4711619322 Ry

     new trust radius        =       0.0362061739 bohr
     new conv_thr            =       0.0000000100 Ry

ATOMIC_POSITIONS (bohr)
Au      -2.330371107   1.613676053  -0.031134556
Au      -0.423256124   2.382181375   4.634915901
Au       3.079520023   1.443169638   0.202658951
Au       4.396375840   3.961698979   5.236648763
Au       7.709773367   1.363118955   2.456114941

     Writing output data file pwscf.save
     Check: negative starting charge=   -0.006435
     NEW-OLD atomic charge density approx. for the potential
     Check: negative starting charge=   -0.006435

[...]

     energy   old            =    -329.4711619322 Ry
     energy   new            =    -329.4736439759 Ry

     CASE: energy  _new < energy  _old

     WARNING: bfgs curvature condition failed, Theta= 0.901
     new trust radius        =       0.0398267913 bohr
     new conv_thr            =       0.0000000025 Ry

[...]

     WARNING: bfgs curvature condition failed, Theta= 0.793
     new trust radius        =       0.0902458300 bohr
     new conv_thr            =       0.0000000004 Ry

[...]

     number of scf cycles    =  34
     number of bfgs steps    =  33

     energy   old            =    -329.4905882499 Ry
     energy   new            =    -329.4906103994 Ry

     CASE: energy  _new < energy  _old

     new trust radius        =       0.0062249974 bohr
     new conv_thr            =            1.0E-10 Ry

ATOMIC_POSITIONS (bohr)
Au      -2.020591223   1.309035594  -0.274520856
Au      -0.647186385   3.061014800   4.401777249
Au       2.922520744   1.366718739   0.741476276
Au       4.398736712   3.375279382   5.559421315
Au       7.778562151   1.651796484   2.071050015

     Writing output data file pwscf.save
     Check: negative starting charge=   -0.006568
     NEW-OLD atomic charge density approx. for the potential
     Check: negative starting charge=   -0.006570

     negative rho (up, down):  5.079E-07 0.000E+00

     Self-consistent Calculation

[...]

     Threshold (ethr) on eigenvalues was too large:
     Diagonalizing with lowered threshold

     Davidson diagonalization with overlap
     ethr =  1.38E-08,  avg # of iterations =  2.0

[...]

     total energy              =    -329.49062065 Ry
     Harris-Foulkes estimate   =    -329.49062065 Ry
     estimated scf accuracy    <          1.0E-10 Ry

     iteration # 10     ecut=    30.00 Ry     beta=0.70
     Davidson diagonalization with overlap
     ethr =  1.88E-13,  avg # of iterations =  2.0

     End of self-consistent calculation

          k = 0.0000 0.0000 0.0000 ( 22119 PWs)   bands (ev):

    -8.5357  -7.8026  -7.6699  -7.2419  -6.8432  -6.8278  -6.6118  -6.4955
    -6.3073  -6.0874  -5.9515  -5.7766  -5.7352  -5.6915  -5.4681  -5.3611
    -5.3127  -5.2566  -5.2028  -5.1818  -5.1725  -5.1214  -4.9947  -4.9262
    -4.8256  -4.7392  -4.4832  -3.7902  -2.5327  -2.1839  -0.5785  -0.2035
     0.5610   0.9504

     the Fermi energy is    -3.7587 ev

!    total energy              =    -329.49062065 Ry
     Harris-Foulkes estimate   =    -329.49062065 Ry
     estimated scf accuracy    <          2.9E-12 Ry

     The total energy is the sum of the following terms:

     one-electron contribution =    -611.01904384 Ry
     hartree contribution      =     326.93586845 Ry
     xc contribution           =     -51.40642445 Ry
     ewald contribution        =       6.00307616 Ry
     smearing contrib. (-TS)   =      -0.00409697 Ry

     convergence has been achieved in  10 iterations

     Forces acting on atoms (Ry/au):

     atom    1 type  1   force =     0.00078730    0.00054482   -0.00015249
     atom    2 type  1   force =    -0.00058350   -0.00020751   -0.00032416
     atom    3 type  1   force =     0.00016779   -0.00008172   -0.00017163
     atom    4 type  1   force =    -0.00029610    0.00010357    0.00066127
     atom    5 type  1   force =    -0.00007548   -0.00035917   -0.00001299

     Total force =     0.001471     Total SCF correction =     0.000009

     bfgs converged in  35 scf cycles and  34 bfgs steps
     (criteria: energy <  1.0E-04, force <  1.0E-03)

     End of BFGS Geometry Optimization

     Final energy   =    -329.4906206517 Ry
Begin final coordinates

ATOMIC_POSITIONS (bohr)
Au      -2.020591223   1.309035594  -0.274520856
Au      -0.647186385   3.061014800   4.401777249
Au       2.922520744   1.366718739   0.741476276
Au       4.398736712   3.375279382   5.559421315
Au       7.778562151   1.651796484   2.071050015
End final coordinates

     Writing output data file pwscf.save

     General routines

     Parallel routines

   This run was terminated on:   1: 9:20  29Jul2017

   JOB DONE.