     Program PWSCF v.6.0 (svn rev. 13079) starts on 29Jul2017 at  0:44:46

     Current dimensions of program PWSCF are:
     Max number of different atomic species (ntypx) = 10
     Max number of k-points (npk) =  40000
     Max angular momentum in pseudopotentials (lmaxx) =  3
     Message from routine iosys:
     pot_extrapolation='second-order' not available, using 'atomic'
     Message from routine iosys:
     wfc_extrapolation='second-order' not available, using 'atomic'

     Subspace diagonalization in iterative solution of the eigenvalue problem:
     a serial algorithm will be used

     bravais-lattice index     =            1
     lattice parameter (alat)  =      20.0000  a.u.
     unit-cell volume          =    8000.0000 (a.u.)^3
     number of atoms/cell      =            5
     number of atomic types    =            1
     number of electrons       =        55.00
     number of Kohn-Sham states=           34
     kinetic-energy cutoff     =      30.0000  Ry
     charge density cutoff     =     120.0000  Ry
     convergence threshold     =      1.0E-08
     mixing beta               =       0.7000
     number of iterations used =            8  plain     mixing
     Exchange-correlation      = BLYP ( 1  3  1  3 0 0)
     nstep                     =           50

     celldm(1)=  20.000000  celldm(2)=   0.000000  celldm(3)=   0.000000
     celldm(4)=   0.000000  celldm(5)=   0.000000  celldm(6)=   0.000000

     crystal axes: (cart. coord. in units of alat)
               a(1) = (   1.000000   0.000000   0.000000 )
               a(2) = (   0.000000   1.000000   0.000000 )
               a(3) = (   0.000000   0.000000   1.000000 )

     reciprocal axes: (cart. coord. in units 2 pi/alat)
               b(1) = (  1.000000  0.000000  0.000000 )
               b(2) = (  0.000000  1.000000  0.000000 )
               b(3) = (  0.000000  0.000000  1.000000 )

     PseudoPot. # 1 for Au read from file:
     ./Au.blyp-d-hgh.UPF
     MD5 check sum: c10d8bae01f806c36a1643a1c69a8479
     Pseudo is Norm-conserving, Zval = 11.0
     Generated in analytical, separable form
     Using radial grid of 1279 points,  6 beta functions with:
                l(1) =   0
                l(2) =   0
                l(3) =   1
                l(4) =   1
                l(5) =   2
                l(6) =   2

     atomic species   valence    mass     pseudopotential
        Au            11.00    28.08600     Au( 1.00)

     No symmetry found

   Cartesian axes

     site n.     atom                  positions (alat units)
         1           Au  tau(   1) = (  -0.1159957   0.0699762  -0.0175050  )
         2           Au  tau(   2) = (  -0.0279039   0.1402638   0.2081050  )
         3           Au  tau(   3) = (   0.1408650   0.0501362   0.0033792  )
         4           Au  tau(   4) = (   0.2128827   0.2088132   0.2692796  )
         5           Au  tau(   5) = (   0.3823723   0.0740107   0.1302908  )

     number of k points=     1  Marzari-Vanderbilt smearing, width (Ry)=  0.0250
                       cart. coord. in units 2pi/alat
        k(    1) = (   0.0000000   0.0000000   0.0000000), wk =   2.0000000

     Initial potential from superposition of free atoms
     Check: negative starting charge=   -0.006324

     starting charge   54.99940, renormalised to   55.00000

     negative rho (up, down):  6.324E-03 0.000E+00
     Starting wfc are   45 randomized atomic wfcs

     Self-consistent Calculation

     iteration #  1     ecut=    30.00 Ry     beta=0.70
     Davidson diagonalization with overlap
     ethr =  1.00E-02,  avg # of iterations =  3.0

     Threshold (ethr) on eigenvalues was too large:
     Diagonalizing with lowered threshold

     Davidson diagonalization with overlap
     ethr =  4.04E-04,  avg # of iterations =  6.0

     negative rho (up, down):  8.517E-04 0.000E+00

     total energy              =    -329.35514842 Ry
     Harris-Foulkes estimate   =    -329.52265372 Ry
     estimated scf accuracy    <       0.27720070 Ry

[...]

     End of self-consistent calculation

          k = 0.0000 0.0000 0.0000 ( 22119 PWs)   bands (ev):

    -7.9887  -7.4357  -7.3625  -7.0256  -6.8565  -6.6577  -6.5069  -6.2628
    -6.1402  -6.0387  -5.8082  -5.7000  -5.6135  -5.5684  -5.4502  -5.3688
    -5.2985  -5.2238  -5.1965  -5.1547  -5.1376  -5.1131  -5.0762  -4.9773
    -4.8670  -4.6410  -4.4374  -3.8125  -2.7625  -2.2103  -0.4574  -0.2339
     0.4230   0.7078

     the Fermi energy is    -3.7948 ev

!    total energy              =    -329.47085992 Ry
     Harris-Foulkes estimate   =    -329.47085990 Ry
     estimated scf accuracy    <          4.1E-09 Ry

     The total energy is the sum of the following terms:

     one-electron contribution =    -589.73057389 Ry
     hartree contribution      =     316.44934690 Ry
     xc contribution           =     -51.35310680 Ry
     ewald contribution        =      -4.83550202 Ry
     smearing contrib. (-TS)   =      -0.00102412 Ry

     convergence has been achieved in  12 iterations

     Forces acting on atoms (Ry/au):

     atom    1 type  1   force =     0.01002757   -0.00547052   -0.00717887
     atom    2 type  1   force =     0.01458426    0.00111727   -0.00389944
     atom    3 type  1   force =     0.00594013    0.01219083    0.02868464
     atom    4 type  1   force =     0.00217213   -0.00872447   -0.00731347
     atom    5 type  1   force =    -0.03272409    0.00088689   -0.01029286

     Total force =     0.052247     Total SCF correction =     0.000339

     BFGS Geometry Optimization

     number of scf cycles    =   1
     number of bfgs steps    =   0

     energy   new            =    -329.4708599198 Ry

     new trust radius        =       0.0343161109 bohr
     new conv_thr            =       0.0000000100 Ry

ATOMIC_POSITIONS (bohr)
Au      -2.309886434   1.394053479  -0.357278868
Au      -0.543492742   2.806393270   4.158200565
Au       2.823241134   1.014914831   0.096268638
Au       4.259827129   4.167539534   5.378278529
Au       7.614722913   1.481100887   2.595523136

     Writing output data file pwscf.save
     Check: negative starting charge=   -0.006324
     NEW-OLD atomic charge density approx. for the potential
     Check: negative starting charge=   -0.006318

[...]

     energy   old            =    -329.4708599198 Ry
     energy   new            =    -329.4734801794 Ry

     CASE: energy  _new < energy  _old

     WARNING: bfgs curvature condition failed, Theta= 0.867
     new trust radius        =       0.0377477220 bohr
     new conv_thr            =       0.0000000026 Ry

[...]

     CASE: energy  _new > energy  _old

[...]

     Threshold (ethr) on eigenvalues was too large:
     Diagonalizing with lowered threshold

     Davidson diagonalization with overlap
     ethr =  5.00E-08,  avg # of iterations =  1.0

[...]

     Self-consistent Calculation

[...]

     total energy              =    -329.49136283 Ry
     Harris-Foulkes estimate   =    -329.49136286 Ry
     estimated scf accuracy    <          6.4E-10 Ry

     iteration # 10     ecut=    30.00 Ry     beta=0.70
     Davidson diagonalization with overlap
     ethr =  1.17E-12,  avg # of iterations =  2.0

     End of self-consistent calculation

          k = 0.0000 0.0000 0.0000 ( 22119 PWs)   bands (ev):

    -8.5145  -7.7825  -7.6690  -7.2332  -6.8689  -6.8224  -6.5843  -6.4859
    -6.3147  -6.0776  -5.9471  -5.7710  -5.7291  -5.6881  -5.4552  -5.3675
    -5.3170  -5.2443  -5.2028  -5.1900  -5.1650  -5.1257  -4.9963  -4.9197
    -4.8451  -4.7224  -4.4789  -3.7924  -2.4987  -2.1924  -0.5598  -0.1827
     0.5193   0.8904

     the Fermi energy is    -3.7620 ev

!    total energy              =    -329.49136284 Ry
     Harris-Foulkes estimate   =    -329.49136283 Ry
     estimated scf accuracy    <          4.0E-11 Ry

     The total energy is the sum of the following terms:

     one-electron contribution =    -609.02276878 Ry
     hartree contribution      =     325.94269829 Ry
     xc contribution           =     -51.40270060 Ry
     ewald contribution        =       4.99525570 Ry
     smearing contrib. (-TS)   =      -0.00384744 Ry

     convergence has been achieved in  10 iterations

     Forces acting on atoms (Ry/au):

     atom    1 type  1   force =     0.00122243    0.00109564    0.00066787
     atom    2 type  1   force =    -0.00268250   -0.00076596   -0.00211059
     atom    3 type  1   force =     0.00011487    0.00007932    0.00012035
     atom    4 type  1   force =     0.00246741   -0.00034009   -0.00023888
     atom    5 type  1   force =    -0.00112221   -0.00006891    0.00156125

     Total force =     0.005037     Total SCF correction =     0.000031

     number of scf cycles    =  50
     number of bfgs steps    =  48

     energy   old            =    -329.4913198340 Ry
     energy   new            =    -329.4913628413 Ry

     CASE: energy  _new < energy  _old

     new trust radius        =       0.0121924015 bohr
     new conv_thr            =            1.0E-10 Ry

ATOMIC_POSITIONS (bohr)
Au      -2.023090721   1.132858529  -0.558320757
Au      -0.755946295   3.608937857   3.829959933
Au       2.852896789   1.116444044   0.750632002
Au       4.152581741   3.636521684   5.451233151
Au       7.617970486   1.369239887   2.397487672

     Writing output data file pwscf.save
     Check: negative starting charge=   -0.006463
     NEW-OLD atomic charge density approx. for the potential
     Check: negative starting charge=   -0.006466

     negative rho (up, down):  2.745E-05 0.000E+00

     Writing output data file pwscf.save

     General routines

     Parallel routines

   This run was terminated on:   0:49:33  29Jul2017

   JOB DONE.