     Program PWSCF v.6.0 (svn rev. 13079) starts on 29Jul2017 at  1:20:57

     Current dimensions of program PWSCF are:
     Max number of different atomic species (ntypx) = 10
     Max number of k-points (npk) =  40000
     Max angular momentum in pseudopotentials (lmaxx) =  3
     Message from routine iosys:
     pot_extrapolation='second-order' not available, using 'atomic'
     Message from routine iosys:
     wfc_extrapolation='second-order' not available, using 'atomic'

     Subspace diagonalization in iterative solution of the eigenvalue problem:
     a serial algorithm will be used

     bravais-lattice index     =            1
     lattice parameter (alat)  =      20.0000  a.u.
     unit-cell volume          =    8000.0000 (a.u.)^3
     number of atoms/cell      =            5
     number of atomic types    =            1
     number of electrons       =        55.00
     number of Kohn-Sham states=           34
     kinetic-energy cutoff     =      30.0000  Ry
     charge density cutoff     =     120.0000  Ry
     convergence threshold     =      1.0E-08
     mixing beta               =       0.7000
     number of iterations used =            8  plain     mixing
     Exchange-correlation      = BLYP ( 1  3  1  3 0 0)
     nstep                     =           50

     celldm(1)=  20.000000  celldm(2)=   0.000000  celldm(3)=   0.000000
     celldm(4)=   0.000000  celldm(5)=   0.000000  celldm(6)=   0.000000

     crystal axes: (cart. coord. in units of alat)
               a(1) = (   1.000000   0.000000   0.000000 )
               a(2) = (   0.000000   1.000000   0.000000 )
               a(3) = (   0.000000   0.000000   1.000000 )

     reciprocal axes: (cart. coord. in units 2 pi/alat)
               b(1) = (  1.000000  0.000000  0.000000 )
               b(2) = (  0.000000  1.000000  0.000000 )
               b(3) = (  0.000000  0.000000  1.000000 )

     PseudoPot. # 1 for Au read from file:
     ./Au.blyp-d-hgh.UPF
     MD5 check sum: c10d8bae01f806c36a1643a1c69a8479
     Pseudo is Norm-conserving, Zval = 11.0
     Generated in analytical, separable form
     Using radial grid of 1279 points,  6 beta functions with:
                l(1) =   0
                l(2) =   0
                l(3) =   1
                l(4) =   1
                l(5) =   2
                l(6) =   2

     atomic species   valence    mass     pseudopotential
        Au            11.00    28.08600     Au( 1.00)

     No symmetry found

   Cartesian axes

     site n.     atom                  positions (alat units)
         1           Au  tau(   1) = (  -0.0846715   0.1070312  -0.0553387  )
         2           Au  tau(   2) = (  -0.0457638   0.1630807   0.1873228  )
         3           Au  tau(   3) = (   0.1638572   0.0774227   0.0161952  )
         4           Au  tau(   4) = (   0.1898218   0.1740068   0.2884258  )
         5           Au  tau(   5) = (   0.3964264   0.0941027   0.1614476  )

     number of k points=     1  Marzari-Vanderbilt smearing, width (Ry)=  0.0250
                       cart. coord. in units 2pi/alat
        k(    1) = (   0.0000000   0.0000000   0.0000000), wk =   2.0000000

     Initial potential from superposition of free atoms
     Check: negative starting charge=   -0.006409

     starting charge   54.99940, renormalised to   55.00000

     negative rho (up, down):  6.409E-03 0.000E+00
     Starting wfc are   45 randomized atomic wfcs

     Self-consistent Calculation

     iteration #  1     ecut=    30.00 Ry     beta=0.70
     Davidson diagonalization with overlap
     ethr =  1.00E-02,  avg # of iterations =  3.0

     Threshold (ethr) on eigenvalues was too large:
     Diagonalizing with lowered threshold

     Davidson diagonalization with overlap
     ethr =  3.85E-04,  avg # of iterations =  5.0

     negative rho (up, down):  8.818E-04 0.000E+00

     total energy              =    -329.37134387 Ry
     Harris-Foulkes estimate   =    -329.52912203 Ry
     estimated scf accuracy    <       0.26450802 Ry

[...]

     End of self-consistent calculation

          k = 0.0000 0.0000 0.0000 ( 22119 PWs)   bands (ev):

    -8.0549  -7.5205  -7.4902  -7.1126  -6.8060  -6.6778  -6.5461  -6.3809
    -6.2235  -6.0124  -5.8172  -5.6621  -5.6241  -5.5844  -5.4571  -5.4109
    -5.3427  -5.2135  -5.1942  -5.1798  -5.1509  -5.1342  -5.0922  -4.8858
    -4.8241  -4.8098  -4.4205  -3.7888  -2.7700  -2.1500  -0.5186  -0.2065
     0.3484   0.8101

     the Fermi energy is    -3.7649 ev

!    total energy              =    -329.47635930 Ry
     Harris-Foulkes estimate   =    -329.47635932 Ry
     estimated scf accuracy    <          4.6E-09 Ry

     The total energy is the sum of the following terms:

     one-electron contribution =    -593.80784878 Ry
     hartree contribution      =     318.44182785 Ry
     xc contribution           =     -51.36018172 Ry
     ewald contribution        =      -2.74756925 Ry
     smearing contrib. (-TS)   =      -0.00258739 Ry

     convergence has been achieved in  12 iterations

     Forces acting on atoms (Ry/au):

     atom    1 type  1   force =     0.01313885   -0.00580392   -0.00701689
     atom    2 type  1   force =     0.00747061    0.00065206    0.00169609
     atom    3 type  1   force =     0.00353869    0.01212912    0.02823774
     atom    4 type  1   force =     0.00380580   -0.00466399   -0.00780577
     atom    5 type  1   force =    -0.02795394   -0.00231326   -0.01511116

     Total force =     0.048826     Total SCF correction =     0.000308

     BFGS Geometry Optimization

     number of scf cycles    =   1
     number of bfgs steps    =   0

     energy   new            =    -329.4763593002 Ry

     new trust radius        =       0.0318609654 bohr
     new conv_thr            =       0.0000000100 Ry

ATOMIC_POSITIONS (bohr)
Au      -1.680290154   2.134819076  -1.113790893
Au      -0.907805393   3.262267055   3.748151090
Au       3.280682689   1.560584122   0.352141737
Au       3.800241796   3.475472009   5.760710230
Au       7.900574062   1.879740738   3.213841836

     Writing output data file pwscf.save
     Check: negative starting charge=   -0.006409
     NEW-OLD atomic charge density approx. for the potential
     Check: negative starting charge=   -0.006406

[...]

     energy   old            =    -329.4763593002 Ry
     energy   new            =    -329.4786264937 Ry

     CASE: energy  _new < energy  _old

     WARNING: bfgs curvature condition failed, Theta= 0.885
     new trust radius        =       0.0350470619 bohr
     new conv_thr            =       0.0000000023 Ry

[...]

     WARNING: bfgs curvature condition failed, Theta= 0.578
     new trust radius        =       0.0385047705 bohr
     new conv_thr            =            1.0E-10 Ry

[...]

     WARNING: info=  8 for Hessian
     new trust radius        =       0.0325046419 bohr
     new conv_thr            =            1.0E-10 Ry

[...]

     CASE: energy  _new > energy  _old

[...]

     WARNING: info=  8 for Hessian
     uphill step: resetting bfgs history

[...]

     number of scf cycles    =  35
     number of bfgs steps    =  33

     energy   old            =    -329.4919937644 Ry
     energy   new            =    -329.4920050836 Ry

     CASE: energy  _new < energy  _old

     new trust radius        =       0.0095440195 bohr
     new conv_thr            =            1.0E-10 Ry

ATOMIC_POSITIONS (bohr)
Au      -1.502364926   1.927240960  -1.173252713
Au      -0.838336975   3.596378975   3.668375633
Au       3.190347736   1.659585329   0.672873669
Au       3.852173524   3.495582098   5.821408859
Au       7.691583640   1.634095639   2.971648551

     Writing output data file pwscf.save
     Check: negative starting charge=   -0.006438
     NEW-OLD atomic charge density approx. for the potential
     Check: negative starting charge=   -0.006440

     negative rho (up, down):  4.489E-06 0.000E+00

     Self-consistent Calculation

[...]

     Threshold (ethr) on eigenvalues was too large:
     Diagonalizing with lowered threshold

     Davidson diagonalization with overlap
     ethr =  3.15E-08,  avg # of iterations =  1.0

[...]

     total energy              =    -329.49201716 Ry
     Harris-Foulkes estimate   =    -329.49201719 Ry
     estimated scf accuracy    <          5.1E-10 Ry

     iteration #  9     ecut=    30.00 Ry     beta=0.70
     Davidson diagonalization with overlap
     ethr =  9.35E-13,  avg # of iterations =  2.0

     End of self-consistent calculation

          k = 0.0000 0.0000 0.0000 ( 22119 PWs)   bands (ev):

    -8.5076  -7.7873  -7.6615  -7.2519  -6.8834  -6.8172  -6.6299  -6.4824
    -6.3252  -6.0683  -5.9718  -5.7723  -5.7314  -5.6905  -5.4550  -5.3669
    -5.3176  -5.2395  -5.2002  -5.1902  -5.1709  -5.1260  -5.0035  -4.9131
    -4.8506  -4.7262  -4.4699  -3.7716  -2.4666  -2.2042  -0.5591  -0.1876
     0.4500   0.8705

     the Fermi energy is    -3.7392 ev

!    total energy              =    -329.49201717 Ry
     Harris-Foulkes estimate   =    -329.49201716 Ry
     estimated scf accuracy    <          7.3E-11 Ry

     The total energy is the sum of the following terms:

     one-electron contribution =    -608.92127497 Ry
     hartree contribution      =     325.88646776 Ry
     xc contribution           =     -51.40300656 Ry
     ewald contribution        =       4.95012162 Ry
     smearing contrib. (-TS)   =      -0.00432503 Ry

     convergence has been achieved in   9 iterations

     Forces acting on atoms (Ry/au):

     atom    1 type  1   force =    -0.00053349   -0.00022580   -0.00053343
     atom    2 type  1   force =    -0.00074761    0.00062609   -0.00000875
     atom    3 type  1   force =     0.00007674   -0.00009995    0.00035395
     atom    4 type  1   force =     0.00054615    0.00048712    0.00071548
     atom    5 type  1   force =     0.00065820   -0.00078747   -0.00052725

     Total force =     0.002023     Total SCF correction =     0.000034

     bfgs converged in  36 scf cycles and  34 bfgs steps
     (criteria: energy <  1.0E-04, force <  1.0E-03)

     End of BFGS Geometry Optimization

     Final energy   =    -329.4920171742 Ry
Begin final coordinates

ATOMIC_POSITIONS (bohr)
Au      -1.502364926   1.927240960  -1.173252713
Au      -0.838336975   3.596378975   3.668375633
Au       3.190347736   1.659585329   0.672873669
Au       3.852173524   3.495582098   5.821408859
Au       7.691583640   1.634095639   2.971648551
End final coordinates

     Writing output data file pwscf.save

     General routines

     Parallel routines

   This run was terminated on:   1:23: 0  29Jul2017

   JOB DONE.