     Program PWSCF v.6.0 (svn rev. 13079) starts on  3Aug2017 at 21: 1:27

     Current dimensions of program PWSCF are:
     Max number of different atomic species (ntypx) = 10
     Max number of k-points (npk) =  40000
     Max angular momentum in pseudopotentials (lmaxx) =  3
     Message from routine iosys:
     pot_extrapolation='second-order' not available, using 'atomic'
     Message from routine iosys:
     wfc_extrapolation='second-order' not available, using 'atomic'

     Subspace diagonalization in iterative solution of the eigenvalue problem:
     a serial algorithm will be used

     bravais-lattice index     =            1
     lattice parameter (alat)  =      20.0000  a.u.
     unit-cell volume          =    8000.0000 (a.u.)^3
     number of atoms/cell      =            5
     number of atomic types    =            1
     number of electrons       =        55.00
     number of Kohn-Sham states=           34
     kinetic-energy cutoff     =      30.0000  Ry
     charge density cutoff     =     120.0000  Ry
     convergence threshold     =      1.0E-08
     mixing beta               =       0.7000
     number of iterations used =            8  plain     mixing
     Exchange-correlation      = BLYP ( 1  3  1  3 0 0)
     nstep                     =           50

     celldm(1)=  20.000000  celldm(2)=   0.000000  celldm(3)=   0.000000
     celldm(4)=   0.000000  celldm(5)=   0.000000  celldm(6)=   0.000000

     crystal axes: (cart. coord. in units of alat)
               a(1) = (   1.000000   0.000000   0.000000 )
               a(2) = (   0.000000   1.000000   0.000000 )
               a(3) = (   0.000000   0.000000   1.000000 )

     reciprocal axes: (cart. coord. in units 2 pi/alat)
               b(1) = (  1.000000  0.000000  0.000000 )
               b(2) = (  0.000000  1.000000  0.000000 )
               b(3) = (  0.000000  0.000000  1.000000 )

     PseudoPot. # 1 for Au read from file:
     ./Au.blyp-d-hgh.UPF
     MD5 check sum: c10d8bae01f806c36a1643a1c69a8479
     Pseudo is Norm-conserving, Zval = 11.0
     Generated in analytical, separable form
     Using radial grid of 1279 points,  6 beta functions with:
                l(1) =   0
                l(2) =   0
                l(3) =   1
                l(4) =   1
                l(5) =   2
                l(6) =   2

     atomic species   valence    mass     pseudopotential
        Au            11.00    28.08600     Au( 1.00)

     No symmetry found

   Cartesian axes

     site n.     atom                  positions (alat units)
         1           Au  tau(   1) = (  -0.0757012   0.1202403  -0.0554076  )
         2           Au  tau(   2) = (  -0.0308955   0.1369280   0.2213265  )
         3           Au  tau(   3) = (   0.1548364   0.0864506   0.0309466  )
         4           Au  tau(   4) = (   0.2053663   0.1891673   0.2802374  )
         5           Au  tau(   5) = (   0.3864945   0.0825950   0.1309166  )

     number of k points=     1  Marzari-Vanderbilt smearing, width (Ry)=  0.0250
                       cart. coord. in units 2pi/alat
        k(    1) = (   0.0000000   0.0000000   0.0000000), wk =   2.0000000

     Initial potential from superposition of free atoms
     Check: negative starting charge=   -0.006333

     starting charge   54.99940, renormalised to   55.00000

     negative rho (up, down):  6.333E-03 0.000E+00
     Starting wfc are   45 randomized atomic wfcs

     Self-consistent Calculation

     iteration #  1     ecut=    30.00 Ry     beta=0.70
     Davidson diagonalization with overlap
     ethr =  1.00E-02,  avg # of iterations =  3.0

     Threshold (ethr) on eigenvalues was too large:
     Diagonalizing with lowered threshold

     Davidson diagonalization with overlap
     ethr =  4.06E-04,  avg # of iterations =  5.0

     negative rho (up, down):  8.730E-04 0.000E+00

     total energy              =    -329.37248962 Ry
     Harris-Foulkes estimate   =    -329.53845145 Ry
     estimated scf accuracy    <       0.27857706 Ry

[...]

     End of self-consistent calculation

          k = 0.0000 0.0000 0.0000 ( 22119 PWs)   bands (ev):

    -8.4786  -7.7941  -7.6591  -7.2102  -6.9880  -6.7825  -6.5588  -6.4233
    -6.1399  -6.0226  -5.8522  -5.7709  -5.7458  -5.6598  -5.4386  -5.3635
    -5.3329  -5.2342  -5.2291  -5.1946  -5.1187  -5.0799  -4.9451  -4.9084
    -4.7813  -4.6731  -4.4408  -3.8491  -2.3753  -2.3074  -0.4945  -0.2179
     0.4221   0.8519

     the Fermi energy is    -3.8397 ev

!    total energy              =    -329.48052031 Ry
     Harris-Foulkes estimate   =    -329.48052035 Ry
     estimated scf accuracy    <          7.8E-09 Ry

     The total energy is the sum of the following terms:

     one-electron contribution =    -607.82554949 Ry
     hartree contribution      =     325.39413919 Ry
     xc contribution           =     -51.40866505 Ry
     ewald contribution        =       4.35874178 Ry
     smearing contrib. (-TS)   =       0.00081325 Ry

     convergence has been achieved in  12 iterations

     Forces acting on atoms (Ry/au):

     atom    1 type  1   force =    -0.00612437    0.00011243    0.01527532
     atom    2 type  1   force =    -0.02199655   -0.00216369   -0.02608493
     atom    3 type  1   force =     0.00218119    0.00116647    0.00406400
     atom    4 type  1   force =     0.02414178   -0.00050933    0.00353709
     atom    5 type  1   force =     0.00179795    0.00139412    0.00320852

     Total force =     0.045536     Total SCF correction =     0.000308

     BFGS Geometry Optimization

     number of scf cycles    =   1
     number of bfgs steps    =   0

     energy   new            =    -329.4805203101 Ry

     new trust radius        =       0.0341899605 bohr
     new conv_thr            =       0.0000000100 Ry

ATOMIC_POSITIONS (bohr)
Au      -1.520148370   2.404918426  -1.092877680
Au      -0.639905554   2.736396307   4.400446073
Au       3.098908194   1.730178469   0.622996005
Au       4.131467780   3.782835672   5.608285085
Au       7.731688950   1.653294125   2.621540517

     Writing output data file pwscf.save
     Check: negative starting charge=   -0.006333
     NEW-OLD atomic charge density approx. for the potential
     Check: negative starting charge=   -0.006341

[...]

     energy   old            =    -329.4805203101 Ry
     energy   new            =    -329.4823261260 Ry

     CASE: energy  _new < energy  _old

[...]

     WARNING: bfgs curvature condition failed, Theta= 0.990
     new trust radius        =       0.0128467684 bohr
     new conv_thr            =       0.0000000002 Ry

[...]

     WARNING: info=  5 for Hessian
     new trust radius        =       0.0480937329 bohr
     new conv_thr            =            1.0E-10 Ry

[...]

     WARNING: info=  5 for Hessian
     uphill step: resetting bfgs history

[...]

     WARNING: bfgs curvature condition failed, Theta= 0.895
     new trust radius        =       0.0041821913 bohr
     new conv_thr            =            1.0E-10 Ry

[...]

     number of scf cycles    =  38
     number of bfgs steps    =  37

     energy   old            =    -329.4913840179 Ry
     energy   new            =    -329.4914035989 Ry

     CASE: energy  _new < energy  _old

     new trust radius        =       0.0109540607 bohr
     new conv_thr            =            1.0E-10 Ry

ATOMIC_POSITIONS (bohr)
Au      -1.651133059   2.155876295  -0.871584533
Au      -0.710129426   3.348650821   4.066826472
Au       3.179765480   1.913770298   0.589624339
Au       4.164028894   3.243536569   5.818984041
Au       7.819479110   1.645789017   2.556539681

     Writing output data file pwscf.save
     Check: negative starting charge=   -0.006479
     NEW-OLD atomic charge density approx. for the potential
     Check: negative starting charge=   -0.006486

[...]

     Self-consistent Calculation

[...]

     Threshold (ethr) on eigenvalues was too large:
     Diagonalizing with lowered threshold

     Davidson diagonalization with overlap
     ethr =  5.64E-08,  avg # of iterations =  1.0

     negative rho (up, down):  2.701E-08 0.000E+00

[...]

     total energy              =    -329.49142193 Ry
     Harris-Foulkes estimate   =    -329.49142194 Ry
     estimated scf accuracy    <          1.2E-10 Ry

     iteration # 10     ecut=    30.00 Ry     beta=0.70
     Davidson diagonalization with overlap
     ethr =  2.27E-13,  avg # of iterations =  2.0

     End of self-consistent calculation

          k = 0.0000 0.0000 0.0000 ( 22119 PWs)   bands (ev):

    -8.5029  -7.7759  -7.6439  -7.2276  -6.8602  -6.8141  -6.6191  -6.4753
    -6.3076  -6.0722  -5.9627  -5.7733  -5.7352  -5.6816  -5.4547  -5.3705
    -5.3172  -5.2446  -5.1974  -5.1872  -5.1746  -5.1292  -4.9996  -4.9196
    -4.8476  -4.7357  -4.4770  -3.7821  -2.4933  -2.2048  -0.5691  -0.2090
     0.4885   0.8858

     the Fermi energy is    -3.7501 ev

!    total energy              =    -329.49142193 Ry
     Harris-Foulkes estimate   =    -329.49142193 Ry
     estimated scf accuracy    <          1.5E-11 Ry

     The total energy is the sum of the following terms:

     one-electron contribution =    -609.12325116 Ry
     hartree contribution      =     325.99307023 Ry
     xc contribution           =     -51.40093211 Ry
     ewald contribution        =       5.04390681 Ry
     smearing contrib. (-TS)   =      -0.00421571 Ry

     convergence has been achieved in  10 iterations

     Forces acting on atoms (Ry/au):

     atom    1 type  1   force =    -0.00006490    0.00037154   -0.00040686
     atom    2 type  1   force =     0.00095356    0.00002733   -0.00005540
     atom    3 type  1   force =    -0.00067225    0.00008826    0.00055263
     atom    4 type  1   force =    -0.00025352   -0.00035677   -0.00040718
     atom    5 type  1   force =     0.00003711   -0.00013036    0.00031681

     Total force =     0.001569     Total SCF correction =     0.000013

     bfgs converged in  39 scf cycles and  38 bfgs steps
     (criteria: energy <  1.0E-04, force <  1.0E-03)

     End of BFGS Geometry Optimization

     Final energy   =    -329.4914219270 Ry
Begin final coordinates

ATOMIC_POSITIONS (bohr)
Au      -1.651133059   2.155876295  -0.871584533
Au      -0.710129426   3.348650821   4.066826472
Au       3.179765480   1.913770298   0.589624339
Au       4.164028894   3.243536569   5.818984041
Au       7.819479110   1.645789017   2.556539681
End final coordinates

     Writing output data file pwscf.save

     General routines

     Parallel routines

   This run was terminated on:  21: 3: 5   3Aug2017

   JOB DONE.