     Program PWSCF v.6.0 (svn rev. 13079) starts on  4Aug2017 at  7:20:29

     Current dimensions of program PWSCF are:
     Max number of different atomic species (ntypx) = 10
     Max number of k-points (npk) =  40000
     Max angular momentum in pseudopotentials (lmaxx) =  3
     Message from routine iosys:
     pot_extrapolation='second-order' not available, using 'atomic'
     Message from routine iosys:
     wfc_extrapolation='second-order' not available, using 'atomic'

     Subspace diagonalization in iterative solution of the eigenvalue problem:
     a serial algorithm will be used

     bravais-lattice index     =            1
     lattice parameter (alat)  =      20.0000  a.u.
     unit-cell volume          =    8000.0000 (a.u.)^3
     number of atoms/cell      =            5
     number of atomic types    =            1
     number of electrons       =        55.00
     number of Kohn-Sham states=           34
     kinetic-energy cutoff     =      30.0000  Ry
     charge density cutoff     =     120.0000  Ry
     convergence threshold     =      1.0E-08
     mixing beta               =       0.7000
     number of iterations used =            8  plain     mixing
     Exchange-correlation      = BLYP ( 1  3  1  3 0 0)
     nstep                     =           50

     celldm(1)=  20.000000  celldm(2)=   0.000000  celldm(3)=   0.000000
     celldm(4)=   0.000000  celldm(5)=   0.000000  celldm(6)=   0.000000

     crystal axes: (cart. coord. in units of alat)
               a(1) = (   1.000000   0.000000   0.000000 )
               a(2) = (   0.000000   1.000000   0.000000 )
               a(3) = (   0.000000   0.000000   1.000000 )

     reciprocal axes: (cart. coord. in units 2 pi/alat)
               b(1) = (  1.000000  0.000000  0.000000 )
               b(2) = (  0.000000  1.000000  0.000000 )
               b(3) = (  0.000000  0.000000  1.000000 )

     PseudoPot. # 1 for Au read from file:
     ./Au.blyp-d-hgh.UPF
     MD5 check sum: c10d8bae01f806c36a1643a1c69a8479
     Pseudo is Norm-conserving, Zval = 11.0
     Generated in analytical, separable form
     Using radial grid of 1279 points,  6 beta functions with:
                l(1) =   0
                l(2) =   0
                l(3) =   1
                l(4) =   1
                l(5) =   2
                l(6) =   2

     atomic species   valence    mass     pseudopotential
        Au            11.00    28.08600     Au( 1.00)

     No symmetry found

   Cartesian axes

     site n.     atom                  positions (alat units)
         1           Au  tau(   1) = (   0.1307503   0.1353242   0.0169303  )
         2           Au  tau(   2) = (  -0.0337780   0.1890521   0.1886539  )
         3           Au  tau(   3) = (   0.1898521   0.1924538  -0.0421052  )
         4           Au  tau(   4) = (   0.2319390   0.2254309   0.2255237  )
         5           Au  tau(   5) = (   0.2324683  -0.0196469   0.2013463  )

     number of k points=     1  Marzari-Vanderbilt smearing, width (Ry)=  0.0250
                       cart. coord. in units 2pi/alat
        k(    1) = (   0.0000000   0.0000000   0.0000000), wk =   2.0000000

     Initial potential from superposition of free atoms
     Check: negative starting charge=   -0.006766

     starting charge   54.99940, renormalised to   55.00000

     negative rho (up, down):  6.766E-03 0.000E+00
     Starting wfc are   45 randomized atomic wfcs

     Self-consistent Calculation

     iteration #  1     ecut=    30.00 Ry     beta=0.70
     Davidson diagonalization with overlap
     ethr =  1.00E-02,  avg # of iterations =  4.0

     negative rho (up, down):  1.962E-05 0.000E+00

     total energy              =    -310.78181615 Ry
     Harris-Foulkes estimate   =    -315.87130343 Ry
     estimated scf accuracy    <       6.05844514 Ry

[...]

     End of self-consistent calculation

          k = 0.0000 0.0000 0.0000 ( 22119 PWs)   bands (ev):

   -36.8181 -36.8017 -29.0756 -25.9685 -25.9444 -11.0547 -10.9401 -10.7279
    -7.7419  -7.3528  -6.9789  -6.7239  -6.5984  -6.4493  -6.0970  -5.9630
    -5.7193  -5.5891  -5.4948  -5.3505  -5.2769  -5.2131  -4.9381  -4.8352
    -4.1198  -3.7383  -2.8661  -2.4615  -2.4467  -1.8633  -1.1215  -0.7818
     0.3965   0.4473

     the Fermi energy is    -2.5416 ev

!    total energy              =    -314.34390824 Ry
     Harris-Foulkes estimate   =    -314.34390819 Ry
     estimated scf accuracy    <          8.9E-09 Ry

     The total energy is the sum of the following terms:

     one-electron contribution =    -752.60628372 Ry
     hartree contribution      =     388.72175011 Ry
     xc contribution           =     -52.66748002 Ry
     ewald contribution        =     102.21865596 Ry
     smearing contrib. (-TS)   =      -0.01055057 Ry

     convergence has been achieved in  16 iterations

     Forces acting on atoms (Ry/au):

     atom    1 type  1   force =   -16.97101772  -16.43373129   16.87479487
     atom    2 type  1   force =    -0.04791414    0.01149190    0.02306529
     atom    3 type  1   force =    16.96965113   16.40165371  -16.95050144
     atom    4 type  1   force =     0.04276716    0.08037922    0.06242690
     atom    5 type  1   force =     0.00651357   -0.05979353   -0.00978563

     Total force =    41.075094     Total SCF correction =     0.000326

     BFGS Geometry Optimization

     number of scf cycles    =   1
     number of bfgs steps    =   0

     energy   new            =    -314.3439082372 Ry

     new trust radius        =       0.5000000000 bohr
     new conv_thr            =       0.0000000100 Ry

ATOMIC_POSITIONS (bohr)
Au       2.322975121   2.423698543   0.628981113
Au      -0.676383488   3.781239748   3.773474899
Au       4.089049363   4.131310478  -1.133781843
Au       4.639515921   4.510001135   4.511549219
Au       4.649477083  -0.393965905   4.026757613

     Writing output data file pwscf.save
     Check: negative starting charge=   -0.006766
     NEW-OLD atomic charge density approx. for the potential
     Check: negative starting charge=   -0.006581

[...]

     energy   old            =    -314.3439082372 Ry
     energy   new            =    -327.1882280321 Ry

     CASE: energy  _new < energy  _old

[...]

     iteration #  1     ecut=    30.00 Ry     beta=0.70
     Davidson diagonalization with overlap
     c_bands:  1 eigenvalues not converged
     ethr =  1.00E-06,  avg # of iterations = 20.0

[...]

     WARNING: bfgs curvature condition failed, Theta= 0.852
     new trust radius        =       0.0296362705 bohr
     new conv_thr            =       0.0000000008 Ry

[...]

     WARNING: bfgs curvature condition failed, Theta= 0.907
     new trust radius        =       0.2138454679 bohr
     new conv_thr            =       0.0000000024 Ry

[...]

     Self-consistent Calculation

[...]

     total energy              =    -329.43963504 Ry
     Harris-Foulkes estimate   =    -329.43963510 Ry
     estimated scf accuracy    <          5.8E-09 Ry

     iteration # 11     ecut=    30.00 Ry     beta=0.70
     Davidson diagonalization with overlap
     ethr =  1.05E-11,  avg # of iterations =  2.0

     End of self-consistent calculation

          k = 0.0000 0.0000 0.0000 ( 22119 PWs)   bands (ev):

    -7.7564  -7.5372  -7.0510  -6.9711  -6.8141  -6.6362  -6.5189  -6.2974
    -6.2211  -6.0288  -5.7980  -5.6591  -5.6362  -5.5242  -5.3925  -5.2686
    -5.1899  -5.1698  -5.1005  -5.0934  -5.0445  -5.0131  -4.9378  -4.8960
    -4.6703  -4.6073  -4.2725  -3.7638  -2.6586  -2.3201  -0.3783  -0.2741
     0.1587   0.6295

     the Fermi energy is    -3.7638 ev

!    total energy              =    -329.43963501 Ry
     Harris-Foulkes estimate   =    -329.43963504 Ry
     estimated scf accuracy    <          5.7E-10 Ry

     The total energy is the sum of the following terms:

     one-electron contribution =    -586.44427154 Ry
     hartree contribution      =     314.94471329 Ry
     xc contribution           =     -51.36290133 Ry
     ewald contribution        =      -6.57953937 Ry
     smearing contrib. (-TS)   =       0.00236394 Ry

     convergence has been achieved in  11 iterations

     Forces acting on atoms (Ry/au):

     atom    1 type  1   force =    -0.00166108    0.01245373    0.03371989
     atom    2 type  1   force =     0.01874469    0.01087373   -0.01050059
     atom    3 type  1   force =    -0.00635700   -0.01816502   -0.02580993
     atom    4 type  1   force =    -0.00916289    0.00262708    0.02247641
     atom    5 type  1   force =    -0.00156372   -0.00778952   -0.01988577

     Total force =     0.062975     Total SCF correction =     0.000115

     number of scf cycles    =  50
     number of bfgs steps    =  49

     energy   old            =    -329.4353991566 Ry
     energy   new            =    -329.4396350142 Ry

     CASE: energy  _new < energy  _old

     new trust radius        =       0.2388974726 bohr
     new conv_thr            =       0.0000000034 Ry

ATOMIC_POSITIONS (bohr)
Au       2.806315103   0.841769974  -0.513987856
Au       0.753874851   2.988052649   4.303348766
Au       4.603456074   6.169072025  -0.362336434
Au       4.928464440   6.238061644   4.518752572
Au       1.932523531  -1.784672293   3.861203952

     Writing output data file pwscf.save
     Check: negative starting charge=   -0.006104
     NEW-OLD atomic charge density approx. for the potential
     Check: negative starting charge=   -0.006048

     negative rho (up, down):  7.344E-03 0.000E+00

     Writing output data file pwscf.save

     General routines

     Parallel routines

   This run was terminated on:   7:23:11   4Aug2017

   JOB DONE.