     Program PWSCF v.6.0 (svn rev. 13079) starts on  4Aug2017 at  3:57: 4

     Current dimensions of program PWSCF are:
     Max number of different atomic species (ntypx) = 10
     Max number of k-points (npk) =  40000
     Max angular momentum in pseudopotentials (lmaxx) =  3
     Message from routine iosys:
     pot_extrapolation='second-order' not available, using 'atomic'
     Message from routine iosys:
     wfc_extrapolation='second-order' not available, using 'atomic'

     Subspace diagonalization in iterative solution of the eigenvalue problem:
     a serial algorithm will be used

     bravais-lattice index     =            1
     lattice parameter (alat)  =      20.0000  a.u.
     unit-cell volume          =    8000.0000 (a.u.)^3
     number of atoms/cell      =            5
     number of atomic types    =            1
     number of electrons       =        55.00
     number of Kohn-Sham states=           34
     kinetic-energy cutoff     =      30.0000  Ry
     charge density cutoff     =     120.0000  Ry
     convergence threshold     =      1.0E-08
     mixing beta               =       0.7000
     number of iterations used =            8  plain     mixing
     Exchange-correlation      = BLYP ( 1  3  1  3 0 0)
     nstep                     =           50

     celldm(1)=  20.000000  celldm(2)=   0.000000  celldm(3)=   0.000000
     celldm(4)=   0.000000  celldm(5)=   0.000000  celldm(6)=   0.000000

     crystal axes: (cart. coord. in units of alat)
               a(1) = (   1.000000   0.000000   0.000000 )
               a(2) = (   0.000000   1.000000   0.000000 )
               a(3) = (   0.000000   0.000000   1.000000 )

     reciprocal axes: (cart. coord. in units 2 pi/alat)
               b(1) = (  1.000000  0.000000  0.000000 )
               b(2) = (  0.000000  1.000000  0.000000 )
               b(3) = (  0.000000  0.000000  1.000000 )

     PseudoPot. # 1 for Au read from file:
     ./Au.blyp-d-hgh.UPF
     MD5 check sum: c10d8bae01f806c36a1643a1c69a8479
     Pseudo is Norm-conserving, Zval = 11.0
     Generated in analytical, separable form
     Using radial grid of 1279 points,  6 beta functions with:
                l(1) =   0
                l(2) =   0
                l(3) =   1
                l(4) =   1
                l(5) =   2
                l(6) =   2

     atomic species   valence    mass     pseudopotential
        Au            11.00    28.08600     Au( 1.00)

     No symmetry found

   Cartesian axes

     site n.     atom                  positions (alat units)
         1           Au  tau(   1) = (  -0.1020898   0.1046756  -0.0391987  )
         2           Au  tau(   2) = (   0.0105786   0.1330622   0.1980698  )
         3           Au  tau(   3) = (   0.1487208   0.1186845  -0.0144742  )
         4           Au  tau(   4) = (   0.2283214   0.2462410   0.2850286  )
         5           Au  tau(   5) = (   0.3163667   0.0427080   0.1465196  )

     number of k points=     1  Marzari-Vanderbilt smearing, width (Ry)=  0.0250
                       cart. coord. in units 2pi/alat
        k(    1) = (   0.0000000   0.0000000   0.0000000), wk =   2.0000000

     Initial potential from superposition of free atoms
     Check: negative starting charge=   -0.006142

     starting charge   54.99940, renormalised to   55.00000

     negative rho (up, down):  6.143E-03 0.000E+00
     Starting wfc are   45 randomized atomic wfcs

     Self-consistent Calculation

     iteration #  1     ecut=    30.00 Ry     beta=0.70
     Davidson diagonalization with overlap
     ethr =  1.00E-02,  avg # of iterations =  3.0

     Threshold (ethr) on eigenvalues was too large:
     Diagonalizing with lowered threshold

     Davidson diagonalization with overlap
     ethr =  3.55E-04,  avg # of iterations =  8.0

     negative rho (up, down):  8.155E-04 0.000E+00

     total energy              =    -329.36411696 Ry
     Harris-Foulkes estimate   =    -329.51258272 Ry
     estimated scf accuracy    <       0.25188095 Ry

[...]

     End of self-consistent calculation

          k = 0.0000 0.0000 0.0000 ( 22119 PWs)   bands (ev):

    -8.2947  -7.8139  -7.6172  -7.2156  -6.9879  -6.8029  -6.6889  -6.4702
    -6.3254  -5.8978  -5.8203  -5.7791  -5.6659  -5.5961  -5.5241  -5.4930
    -5.2614  -5.2016  -5.1778  -5.1272  -5.0961  -5.0369  -4.9814  -4.9161
    -4.8082  -4.4933  -4.3933  -3.6236  -2.5276  -2.3293  -0.2952  -0.0862
     0.3217   0.4715

     the Fermi energy is    -3.5862 ev

!    total energy              =    -329.45933823 Ry
     Harris-Foulkes estimate   =    -329.45933829 Ry
     estimated scf accuracy    <          9.0E-09 Ry

     The total energy is the sum of the following terms:

     one-electron contribution =    -610.89166165 Ry
     hartree contribution      =     326.96055674 Ry
     xc contribution           =     -51.40456295 Ry
     ewald contribution        =       5.88173937 Ry
     smearing contrib. (-TS)   =      -0.00540974 Ry

     convergence has been achieved in  11 iterations

     Forces acting on atoms (Ry/au):

     atom    1 type  1   force =    -0.00362355    0.00124429    0.00667010
     atom    2 type  1   force =    -0.00715878    0.01270057    0.00283013
     atom    3 type  1   force =    -0.00705274   -0.00075706   -0.03064805
     atom    4 type  1   force =    -0.00793225   -0.01482514    0.00049319
     atom    5 type  1   force =     0.02576733    0.00163734    0.02065464

     Total force =     0.051435     Total SCF correction =     0.000332

     BFGS Geometry Optimization

     number of scf cycles    =   1
     number of bfgs steps    =   0

     energy   new            =    -329.4593382293 Ry

     new trust radius        =       0.0330643319 bohr
     new conv_thr            =       0.0000000100 Ry

ATOMIC_POSITIONS (bohr)
Au      -2.045419553   2.094756287  -0.777303896
Au       0.204413224   2.673945568   3.964227128
Au       2.967364256   2.372931944  -0.320133055
Au       4.558494745   4.909994859   5.701065187
Au       6.353100328   0.855796341   2.951046636

     Writing output data file pwscf.save
     Check: negative starting charge=   -0.006142
     NEW-OLD atomic charge density approx. for the potential
     Check: negative starting charge=   -0.006122

[...]

     energy   old            =    -329.4593382293 Ry
     energy   new            =    -329.4616299958 Ry

     CASE: energy  _new < energy  _old

[...]

     iteration #  1     ecut=    30.00 Ry     beta=0.70
     Davidson diagonalization with overlap
     c_bands:  1 eigenvalues not converged
     ethr =  1.00E-06,  avg # of iterations = 20.0

[...]

     WARNING: bfgs curvature condition failed, Theta= 0.595
     new trust radius        =       0.0802529443 bohr
     new conv_thr            =       0.0000000001 Ry

[...]

     WARNING: info= 12 for Hessian
     uphill step: resetting bfgs history

[...]

     WARNING: bfgs curvature condition failed, Theta= 0.738
     new trust radius        =       0.0900859841 bohr
     new conv_thr            =       0.0000000004 Ry

[...]

     WARNING: info= 13 for Hessian

     WARNING: bfgs curvature condition failed, Theta= 0.448
     uphill step: resetting bfgs history

[...]

     Threshold (ethr) on eigenvalues was too large:
     Diagonalizing with lowered threshold

     Davidson diagonalization with overlap
     ethr =  9.91E-08,  avg # of iterations =  1.0

[...]

     Self-consistent Calculation

[...]

     total energy              =    -329.49029543 Ry
     Harris-Foulkes estimate   =    -329.49029546 Ry
     estimated scf accuracy    <          1.1E-09 Ry

     iteration # 10     ecut=    30.00 Ry     beta=0.70
     Davidson diagonalization with overlap
     ethr =  1.92E-12,  avg # of iterations =  2.0

     End of self-consistent calculation

          k = 0.0000 0.0000 0.0000 ( 22119 PWs)   bands (ev):

    -8.4593  -7.7495  -7.6839  -7.2655  -7.1090  -6.8019  -6.5817  -6.4905
    -6.3690  -6.0444  -5.9871  -5.7408  -5.6937  -5.6498  -5.4016  -5.3613
    -5.3429  -5.2422  -5.2228  -5.1900  -5.1678  -5.1198  -4.9788  -4.9424
    -4.8854  -4.5832  -4.4901  -3.7737  -2.4539  -2.1381  -0.5260  -0.2305
     0.3924   0.7977

     the Fermi energy is    -3.7441 ev

!    total energy              =    -329.49029543 Ry
     Harris-Foulkes estimate   =    -329.49029543 Ry
     estimated scf accuracy    <          8.1E-11 Ry

     The total energy is the sum of the following terms:

     one-electron contribution =    -606.50792400 Ry
     hartree contribution      =     324.68671836 Ry
     xc contribution           =     -51.40785682 Ry
     ewald contribution        =       3.74226285 Ry
     smearing contrib. (-TS)   =      -0.00349583 Ry

     convergence has been achieved in  10 iterations

     Forces acting on atoms (Ry/au):

     atom    1 type  1   force =     0.00295174    0.00222108    0.00202175
     atom    2 type  1   force =    -0.00385562   -0.00462284   -0.00464139
     atom    3 type  1   force =    -0.00608539   -0.00304066   -0.00814721
     atom    4 type  1   force =     0.00436962    0.00400768    0.00712389
     atom    5 type  1   force =     0.00261966    0.00143474    0.00364296

     Total force =     0.017212     Total SCF correction =     0.000042

     number of scf cycles    =  50
     number of bfgs steps    =  49

     energy   old            =    -329.4900428479 Ry
     energy   new            =    -329.4902954337 Ry

     CASE: energy  _new < energy  _old

     new trust radius        =       0.0482424307 bohr
     new conv_thr            =       0.0000000003 Ry

ATOMIC_POSITIONS (bohr)
Au      -2.170015614   2.287534649  -0.636341617
Au       0.841629124   3.674649038   3.230428267
Au       2.827663504   0.931069432  -0.746496439
Au       4.253889260   4.299246989   6.802078072
Au       6.284786725   1.714924892   2.869233717

     Writing output data file pwscf.save
     Check: negative starting charge=   -0.006328
     NEW-OLD atomic charge density approx. for the potential
     Check: negative starting charge=   -0.006318

     negative rho (up, down):  6.184E-04 0.000E+00

     Writing output data file pwscf.save

     General routines

     Parallel routines

   This run was terminated on:   3:59:20   4Aug2017

   JOB DONE.