     Program PWSCF v.6.0 (svn rev. 13079) starts on  3Aug2017 at 17:41: 3

     Current dimensions of program PWSCF are:
     Max number of different atomic species (ntypx) = 10
     Max number of k-points (npk) =  40000
     Max angular momentum in pseudopotentials (lmaxx) =  3
     Message from routine iosys:
     pot_extrapolation='second-order' not available, using 'atomic'
     Message from routine iosys:
     wfc_extrapolation='second-order' not available, using 'atomic'

     Subspace diagonalization in iterative solution of the eigenvalue problem:
     a serial algorithm will be used

     bravais-lattice index     =            1
     lattice parameter (alat)  =      20.0000  a.u.
     unit-cell volume          =    8000.0000 (a.u.)^3
     number of atoms/cell      =            5
     number of atomic types    =            1
     number of electrons       =        55.00
     number of Kohn-Sham states=           34
     kinetic-energy cutoff     =      30.0000  Ry
     charge density cutoff     =     120.0000  Ry
     convergence threshold     =      1.0E-08
     mixing beta               =       0.7000
     number of iterations used =            8  plain     mixing
     Exchange-correlation      = BLYP ( 1  3  1  3 0 0)
     nstep                     =           50

     celldm(1)=  20.000000  celldm(2)=   0.000000  celldm(3)=   0.000000
     celldm(4)=   0.000000  celldm(5)=   0.000000  celldm(6)=   0.000000

     crystal axes: (cart. coord. in units of alat)
               a(1) = (   1.000000   0.000000   0.000000 )
               a(2) = (   0.000000   1.000000   0.000000 )
               a(3) = (   0.000000   0.000000   1.000000 )

     reciprocal axes: (cart. coord. in units 2 pi/alat)
               b(1) = (  1.000000  0.000000  0.000000 )
               b(2) = (  0.000000  1.000000  0.000000 )
               b(3) = (  0.000000  0.000000  1.000000 )

     PseudoPot. # 1 for Au read from file:
     ./Au.blyp-d-hgh.UPF
     MD5 check sum: c10d8bae01f806c36a1643a1c69a8479
     Pseudo is Norm-conserving, Zval = 11.0
     Generated in analytical, separable form
     Using radial grid of 1279 points,  6 beta functions with:
                l(1) =   0
                l(2) =   0
                l(3) =   1
                l(4) =   1
                l(5) =   2
                l(6) =   2

     atomic species   valence    mass     pseudopotential
        Au            11.00    28.08600     Au( 1.00)

     No symmetry found

   Cartesian axes

     site n.     atom                  positions (alat units)
         1           Au  tau(   1) = (  -0.0924340   0.1174477  -0.0429179  )
         2           Au  tau(   2) = (  -0.0354481   0.1900516   0.2083442  )
         3           Au  tau(   3) = (   0.1509968   0.1130640   0.0357968  )
         4           Au  tau(   4) = (   0.2065558   0.1931807   0.2828983  )
         5           Au  tau(   5) = (   0.3843795   0.0644057   0.1326623  )

     number of k points=     1  Marzari-Vanderbilt smearing, width (Ry)=  0.0250
                       cart. coord. in units 2pi/alat
        k(    1) = (   0.0000000   0.0000000   0.0000000), wk =   2.0000000

     Initial potential from superposition of free atoms
     Check: negative starting charge=   -0.006454

     starting charge   54.99940, renormalised to   55.00000

     negative rho (up, down):  6.454E-03 0.000E+00
     Starting wfc are   45 randomized atomic wfcs

     Self-consistent Calculation

     iteration #  1     ecut=    30.00 Ry     beta=0.70
     Davidson diagonalization with overlap
     ethr =  1.00E-02,  avg # of iterations =  3.0

     Threshold (ethr) on eigenvalues was too large:
     Diagonalizing with lowered threshold

     Davidson diagonalization with overlap
     ethr =  3.98E-04,  avg # of iterations =  3.0

     negative rho (up, down):  8.856E-04 0.000E+00

     total energy              =    -329.38042355 Ry
     Harris-Foulkes estimate   =    -329.54282454 Ry
     estimated scf accuracy    <       0.27326708 Ry

[...]

     End of self-consistent calculation

          k = 0.0000 0.0000 0.0000 ( 22119 PWs)   bands (ev):

    -8.4267  -7.8199  -7.6914  -7.2039  -6.8121  -6.7346  -6.5850  -6.4332
    -6.2546  -6.0551  -5.8003  -5.7860  -5.6805  -5.6199  -5.4653  -5.3770
    -5.3035  -5.2777  -5.2234  -5.1771  -5.1316  -5.1061  -5.0019  -4.9508
    -4.7847  -4.7262  -4.5004  -3.8256  -2.4995  -2.2225  -0.5440  -0.1737
     0.4824   0.7155

     the Fermi energy is    -3.7983 ev

!    total energy              =    -329.48589580 Ry
     Harris-Foulkes estimate   =    -329.48589580 Ry
     estimated scf accuracy    <          1.1E-09 Ry

     The total energy is the sum of the following terms:

     one-electron contribution =    -605.06667428 Ry
     hartree contribution      =     323.99560773 Ry
     xc contribution           =     -51.38805449 Ry
     ewald contribution        =       2.97627251 Ry
     smearing contrib. (-TS)   =      -0.00304727 Ry

     convergence has been achieved in  13 iterations

     Forces acting on atoms (Ry/au):

     atom    1 type  1   force =     0.00860031    0.00420835    0.01290510
     atom    2 type  1   force =    -0.01686138    0.00113636   -0.01211946
     atom    3 type  1   force =     0.00357287   -0.01110114   -0.00491316
     atom    4 type  1   force =     0.01995653   -0.00455653    0.00170197
     atom    5 type  1   force =    -0.01526834    0.01031296    0.00242555

     Total force =     0.040226     Total SCF correction =     0.000124

     BFGS Geometry Optimization

     number of scf cycles    =   1
     number of bfgs steps    =   0

     energy   new            =    -329.4858958026 Ry

     new trust radius        =       0.0207961243 bohr
     new conv_thr            =       0.0000000100 Ry

ATOMIC_POSITIONS (bohr)
Au      -1.840078690   2.353162351  -0.845451902
Au      -0.725824384   3.802167356   4.154765544
Au       3.023508875   2.250179861   0.711022843
Au       4.151073535   3.859056470   5.659666970
Au       7.672321664   1.298427963   2.655670546

     Writing output data file pwscf.save
     Check: negative starting charge=   -0.006454
     NEW-OLD atomic charge density approx. for the potential
     Check: negative starting charge=   -0.006458

[...]

     energy   old            =    -329.4858958026 Ry
     energy   new            =    -329.4873413250 Ry

     CASE: energy  _new < energy  _old

[...]

     WARNING: bfgs curvature condition failed, Theta= 0.943
     new trust radius        =       0.0121332508 bohr
     new conv_thr            =            1.0E-10 Ry

[...]

     WARNING: bfgs curvature condition failed, Theta= 0.950
     new trust radius        =       0.0716827708 bohr
     new conv_thr            =            1.0E-10 Ry

[...]

     CASE: energy  _new > energy  _old

[...]

     Threshold (ethr) on eigenvalues was too large:
     Diagonalizing with lowered threshold

     Davidson diagonalization with overlap
     ethr =  5.18E-08,  avg # of iterations =  1.0

[...]

     Self-consistent Calculation

[...]

     total energy              =    -329.49356157 Ry
     Harris-Foulkes estimate   =    -329.49356155 Ry
     estimated scf accuracy    <          1.4E-10 Ry

     iteration # 11     ecut=    30.00 Ry     beta=0.70
     Davidson diagonalization with overlap
     ethr =  2.61E-13,  avg # of iterations =  2.0

     End of self-consistent calculation

          k = 0.0000 0.0000 0.0000 ( 22119 PWs)   bands (ev):

    -8.5266  -7.7887  -7.6678  -7.2316  -6.8512  -6.8234  -6.6019  -6.4854
    -6.3076  -6.0867  -5.9416  -5.7712  -5.7284  -5.6891  -5.4613  -5.3534
    -5.3103  -5.2524  -5.2039  -5.1784  -5.1690  -5.1206  -4.9971  -4.9300
    -4.8295  -4.7332  -4.4829  -3.7732  -2.4232  -2.2086  -0.5334  -0.1773
     0.4673   0.7830

     the Fermi energy is    -3.7395 ev

!    total energy              =    -329.49356157 Ry
     Harris-Foulkes estimate   =    -329.49356157 Ry
     estimated scf accuracy    <          8.9E-12 Ry

     The total energy is the sum of the following terms:

     one-electron contribution =    -607.12965446 Ry
     hartree contribution      =     324.99537239 Ry
     xc contribution           =     -51.40036760 Ry
     ewald contribution        =       4.04569453 Ry
     smearing contrib. (-TS)   =      -0.00460643 Ry

     convergence has been achieved in  11 iterations

     Forces acting on atoms (Ry/au):

     atom    1 type  1   force =    -0.00036089    0.00090200    0.00094613
     atom    2 type  1   force =    -0.00038954   -0.00026828   -0.00074955
     atom    3 type  1   force =    -0.00121150   -0.00051718   -0.00181666
     atom    4 type  1   force =     0.00092507    0.00132926    0.00086426
     atom    5 type  1   force =     0.00103687   -0.00144581    0.00075583

     Total force =     0.003843     Total SCF correction =     0.000013

     number of scf cycles    =  50
     number of bfgs steps    =  48

     energy   old            =    -329.4935113043 Ry
     energy   new            =    -329.4935615651 Ry

     CASE: energy  _new < energy  _old

     new trust radius        =       0.0461048097 bohr
     new conv_thr            =            1.0E-10 Ry

ATOMIC_POSITIONS (bohr)
Au      -1.518261071   2.525771683  -1.108458406
Au      -0.700513701   4.479045697   3.619351708
Au       3.071230335   1.749570223   0.849685829
Au       3.906073054   3.663671958   5.839875595
Au       7.522472383   1.144934439   3.135219273

     Writing output data file pwscf.save
     Check: negative starting charge=   -0.006355
     NEW-OLD atomic charge density approx. for the potential
     Check: negative starting charge=   -0.006345

     negative rho (up, down):  4.952E-04 0.000E+00

     Writing output data file pwscf.save

     General routines

     Parallel routines

   This run was terminated on:  17:43:14   3Aug2017

   JOB DONE.