     Program PWSCF v.6.0 (svn rev. 13079) starts on  4Aug2017 at  0:58:18

     Current dimensions of program PWSCF are:
     Max number of different atomic species (ntypx) = 10
     Max number of k-points (npk) =  40000
     Max angular momentum in pseudopotentials (lmaxx) =  3
     Message from routine iosys:
     pot_extrapolation='second-order' not available, using 'atomic'
     Message from routine iosys:
     wfc_extrapolation='second-order' not available, using 'atomic'

     Subspace diagonalization in iterative solution of the eigenvalue problem:
     a serial algorithm will be used

     bravais-lattice index     =            1
     lattice parameter (alat)  =      20.0000  a.u.
     unit-cell volume          =    8000.0000 (a.u.)^3
     number of atoms/cell      =            5
     number of atomic types    =            1
     number of electrons       =        55.00
     number of Kohn-Sham states=           34
     kinetic-energy cutoff     =      30.0000  Ry
     charge density cutoff     =     120.0000  Ry
     convergence threshold     =      1.0E-08
     mixing beta               =       0.7000
     number of iterations used =            8  plain     mixing
     Exchange-correlation      = BLYP ( 1  3  1  3 0 0)
     nstep                     =           50

     celldm(1)=  20.000000  celldm(2)=   0.000000  celldm(3)=   0.000000
     celldm(4)=   0.000000  celldm(5)=   0.000000  celldm(6)=   0.000000

     crystal axes: (cart. coord. in units of alat)
               a(1) = (   1.000000   0.000000   0.000000 )
               a(2) = (   0.000000   1.000000   0.000000 )
               a(3) = (   0.000000   0.000000   1.000000 )

     reciprocal axes: (cart. coord. in units 2 pi/alat)
               b(1) = (  1.000000  0.000000  0.000000 )
               b(2) = (  0.000000  1.000000  0.000000 )
               b(3) = (  0.000000  0.000000  1.000000 )

     PseudoPot. # 1 for Au read from file:
     ./Au.blyp-d-hgh.UPF
     MD5 check sum: c10d8bae01f806c36a1643a1c69a8479
     Pseudo is Norm-conserving, Zval = 11.0
     Generated in analytical, separable form
     Using radial grid of 1279 points,  6 beta functions with:
                l(1) =   0
                l(2) =   0
                l(3) =   1
                l(4) =   1
                l(5) =   2
                l(6) =   2

     atomic species   valence    mass     pseudopotential
        Au            11.00    28.08600     Au( 1.00)

     No symmetry found

   Cartesian axes

     site n.     atom                  positions (alat units)
         1           Au  tau(   1) = (  -0.1016557   0.0636143  -0.0123095  )
         2           Au  tau(   2) = (   0.0116372   0.1350116   0.2097000  )
         3           Au  tau(   3) = (   0.1410734   0.0783894   0.0066908  )
         4           Au  tau(   4) = (   0.2302073   0.2155747   0.3043228  )
         5           Au  tau(   5) = (   0.3173765   0.0852591   0.1300711  )

     number of k points=     1  Marzari-Vanderbilt smearing, width (Ry)=  0.0250
                       cart. coord. in units 2pi/alat
        k(    1) = (   0.0000000   0.0000000   0.0000000), wk =   2.0000000

     Initial potential from superposition of free atoms
     Check: negative starting charge=   -0.006544

     starting charge   54.99940, renormalised to   55.00000

     negative rho (up, down):  6.544E-03 0.000E+00
     Starting wfc are   45 randomized atomic wfcs

     Self-consistent Calculation

     iteration #  1     ecut=    30.00 Ry     beta=0.70
     Davidson diagonalization with overlap
     ethr =  1.00E-02,  avg # of iterations =  4.0

     Threshold (ethr) on eigenvalues was too large:
     Diagonalizing with lowered threshold

     Davidson diagonalization with overlap
     ethr =  6.01E-04,  avg # of iterations =  2.0

     negative rho (up, down):  8.053E-04 0.000E+00

     total energy              =    -329.20990776 Ry
     Harris-Foulkes estimate   =    -329.44553343 Ry
     estimated scf accuracy    <       0.37625934 Ry

[...]

     End of self-consistent calculation

          k = 0.0000 0.0000 0.0000 ( 22119 PWs)   bands (ev):

    -9.2814  -8.5323  -8.4576  -8.0327  -7.6283  -7.5416  -7.0558  -6.8123
    -6.6238  -6.4651  -6.1998  -5.9729  -5.8885  -5.6398  -5.5938  -5.5601
    -5.3912  -5.3067  -5.2844  -5.1195  -5.0638  -5.0057  -4.9132  -4.7857
    -4.6033  -4.4402  -4.0275  -3.7144  -2.4534  -1.7328  -0.5673  -0.2639
     0.4232   0.7734

     the Fermi energy is    -3.6924 ev

!    total energy              =    -329.37291017 Ry
     Harris-Foulkes estimate   =    -329.37291019 Ry
     estimated scf accuracy    <          1.6E-09 Ry

     The total energy is the sum of the following terms:

     one-electron contribution =    -644.47005899 Ry
     hartree contribution      =     343.39679823 Ry
     xc contribution           =     -51.61301208 Ry
     ewald contribution        =      23.31257087 Ry
     smearing contrib. (-TS)   =       0.00079179 Ry

     convergence has been achieved in  13 iterations

     Forces acting on atoms (Ry/au):

     atom    1 type  1   force =    -0.03918807   -0.00206550   -0.00503770
     atom    2 type  1   force =    -0.03567556    0.00650767    0.02125777
     atom    3 type  1   force =    -0.18257321   -0.01669188   -0.18760467
     atom    4 type  1   force =    -0.02120989    0.05218977    0.07513714
     atom    5 type  1   force =     0.27864673   -0.03994004    0.09624746

     Total force =     0.411657     Total SCF correction =     0.000188

     BFGS Geometry Optimization

     number of scf cycles    =   1
     number of bfgs steps    =   0

     energy   new            =    -329.3729101747 Ry

     new trust radius        =       0.2974941648 bohr
     new conv_thr            =       0.0000000100 Ry

ATOMIC_POSITIONS (bohr)
Au      -2.072301073   1.270220495  -0.251228696
Au       0.197067443   2.706740666   4.215258765
Au       2.638893794   1.551097118  -0.053788669
Au       4.582936109   4.363684765   6.161593144
Au       6.626176726   1.665240957   2.697669457

     Writing output data file pwscf.save
     Check: negative starting charge=   -0.006544
     NEW-OLD atomic charge density approx. for the potential
     Check: negative starting charge=   -0.006459

[...]

     energy   old            =    -329.3729101747 Ry
     energy   new            =    -329.4576098850 Ry

     CASE: energy  _new < energy  _old

[...]

     WARNING: bfgs curvature condition failed, Theta= 0.425
     new trust radius        =       0.1918511791 bohr
     new conv_thr            =       0.0000000008 Ry

[...]

     iteration #  1     ecut=    30.00 Ry     beta=0.70
     Davidson diagonalization with overlap
     c_bands:  1 eigenvalues not converged
     ethr =  1.00E-06,  avg # of iterations = 20.0

[...]

     WARNING: info= 10 for Hessian
     new trust radius        =       0.1235614717 bohr
     new conv_thr            =       0.0000000004 Ry

[...]

     WARNING: info= 10 for Hessian
     new trust radius        =       0.0073020588 bohr
     new conv_thr            =       0.0000000002 Ry

[...]

     WARNING: info= 10 for Hessian
     uphill step: resetting bfgs history

[...]

     WARNING: bfgs curvature condition failed, Theta= 0.899
     new trust radius        =       0.0076384605 bohr
     new conv_thr            =       0.0000000002 Ry

[...]

     Threshold (ethr) on eigenvalues was too large:
     Diagonalizing with lowered threshold

     Davidson diagonalization with overlap
     ethr =  7.87E-08,  avg # of iterations =  1.0

[...]

     Self-consistent Calculation

[...]

     total energy              =    -329.49279179 Ry
     Harris-Foulkes estimate   =    -329.49279183 Ry
     estimated scf accuracy    <          4.9E-10 Ry

     iteration # 10     ecut=    30.00 Ry     beta=0.70
     Davidson diagonalization with overlap
     ethr =  8.98E-13,  avg # of iterations =  2.0

     End of self-consistent calculation

          k = 0.0000 0.0000 0.0000 ( 22119 PWs)   bands (ev):

    -8.4777  -7.7695  -7.6443  -7.2435  -6.8628  -6.7915  -6.6208  -6.4751
    -6.3149  -6.0555  -5.9587  -5.7549  -5.7174  -5.6763  -5.4534  -5.3596
    -5.3104  -5.2441  -5.1940  -5.1840  -5.1641  -5.1215  -5.0007  -4.9183
    -4.8482  -4.7261  -4.4831  -3.7465  -2.4095  -2.2369  -0.5300  -0.2093
     0.3940   0.7509

     the Fermi energy is    -3.7097 ev

!    total energy              =    -329.49279180 Ry
     Harris-Foulkes estimate   =    -329.49279179 Ry
     estimated scf accuracy    <          5.7E-11 Ry

     The total energy is the sum of the following terms:

     one-electron contribution =    -604.50031410 Ry
     hartree contribution      =     323.69044048 Ry
     xc contribution           =     -51.39644969 Ry
     ewald contribution        =       2.71887121 Ry
     smearing contrib. (-TS)   =      -0.00533971 Ry

     convergence has been achieved in  10 iterations

     Forces acting on atoms (Ry/au):

     atom    1 type  1   force =    -0.00116267    0.00033845    0.00014677
     atom    2 type  1   force =    -0.00032691   -0.00031849    0.00033192
     atom    3 type  1   force =     0.00302415    0.00057633   -0.00014414
     atom    4 type  1   force =    -0.00119637   -0.00021490   -0.00112737
     atom    5 type  1   force =    -0.00033819   -0.00038139    0.00079283

     Total force =     0.003865     Total SCF correction =     0.000026

     number of scf cycles    =  50
     number of bfgs steps    =  49

     energy   old            =    -329.4927548174 Ry
     energy   new            =    -329.4927918035 Ry

     CASE: energy  _new < energy  _old

     new trust radius        =       0.0240741594 bohr
     new conv_thr            =            1.0E-10 Ry

ATOMIC_POSITIONS (bohr)
Au      -2.069997635   1.382240610  -0.187873163
Au       0.831259735   3.037096564   3.618141065
Au       2.942002449   0.438047681  -0.752382882
Au       4.166928161   4.485533268   7.161248885
Au       6.102580290   2.214065877   2.930370095

     Writing output data file pwscf.save
     Check: negative starting charge=   -0.006286
     NEW-OLD atomic charge density approx. for the potential
     Check: negative starting charge=   -0.006279

     negative rho (up, down):  1.474E-04 0.000E+00

     Writing output data file pwscf.save

     General routines

     Parallel routines

   This run was terminated on:   1: 0:34   4Aug2017

   JOB DONE.