     Program PWSCF v.6.0 (svn rev. 13079) starts on  3Aug2017 at 20:39: 2

     Current dimensions of program PWSCF are:
     Max number of different atomic species (ntypx) = 10
     Max number of k-points (npk) =  40000
     Max angular momentum in pseudopotentials (lmaxx) =  3
     Message from routine iosys:
     pot_extrapolation='second-order' not available, using 'atomic'
     Message from routine iosys:
     wfc_extrapolation='second-order' not available, using 'atomic'

     Subspace diagonalization in iterative solution of the eigenvalue problem:
     a serial algorithm will be used

     bravais-lattice index     =            1
     lattice parameter (alat)  =      20.0000  a.u.
     unit-cell volume          =    8000.0000 (a.u.)^3
     number of atoms/cell      =            5
     number of atomic types    =            1
     number of electrons       =        55.00
     number of Kohn-Sham states=           34
     kinetic-energy cutoff     =      30.0000  Ry
     charge density cutoff     =     120.0000  Ry
     convergence threshold     =      1.0E-08
     mixing beta               =       0.7000
     number of iterations used =            8  plain     mixing
     Exchange-correlation      = BLYP ( 1  3  1  3 0 0)
     nstep                     =           50

     celldm(1)=  20.000000  celldm(2)=   0.000000  celldm(3)=   0.000000
     celldm(4)=   0.000000  celldm(5)=   0.000000  celldm(6)=   0.000000

     crystal axes: (cart. coord. in units of alat)
               a(1) = (   1.000000   0.000000   0.000000 )
               a(2) = (   0.000000   1.000000   0.000000 )
               a(3) = (   0.000000   0.000000   1.000000 )

     reciprocal axes: (cart. coord. in units 2 pi/alat)
               b(1) = (  1.000000  0.000000  0.000000 )
               b(2) = (  0.000000  1.000000  0.000000 )
               b(3) = (  0.000000  0.000000  1.000000 )

     PseudoPot. # 1 for Au read from file:
     ./Au.blyp-d-hgh.UPF
     MD5 check sum: c10d8bae01f806c36a1643a1c69a8479
     Pseudo is Norm-conserving, Zval = 11.0
     Generated in analytical, separable form
     Using radial grid of 1279 points,  6 beta functions with:
                l(1) =   0
                l(2) =   0
                l(3) =   1
                l(4) =   1
                l(5) =   2
                l(6) =   2

     atomic species   valence    mass     pseudopotential
        Au            11.00    28.08600     Au( 1.00)

     No symmetry found

   Cartesian axes

     site n.     atom                  positions (alat units)
         1           Au  tau(   1) = (  -0.0879748   0.0963210  -0.0308991  )
         2           Au  tau(   2) = (  -0.0439717   0.1556942   0.2075783  )
         3           Au  tau(   3) = (   0.1534189   0.0832195   0.0297631  )
         4           Au  tau(   4) = (   0.2098197   0.1705467   0.2898890  )
         5           Au  tau(   5) = (   0.3839707   0.1113731   0.1251443  )

     number of k points=     1  Marzari-Vanderbilt smearing, width (Ry)=  0.0250
                       cart. coord. in units 2pi/alat
        k(    1) = (   0.0000000   0.0000000   0.0000000), wk =   2.0000000

     Initial potential from superposition of free atoms
     Check: negative starting charge=   -0.006465

     starting charge   54.99940, renormalised to   55.00000

     negative rho (up, down):  6.465E-03 0.000E+00
     Starting wfc are   45 randomized atomic wfcs

     Self-consistent Calculation

     iteration #  1     ecut=    30.00 Ry     beta=0.70
     Davidson diagonalization with overlap
     ethr =  1.00E-02,  avg # of iterations =  3.0

     Threshold (ethr) on eigenvalues was too large:
     Diagonalizing with lowered threshold

     Davidson diagonalization with overlap
     ethr =  4.19E-04,  avg # of iterations =  3.0

     negative rho (up, down):  9.001E-04 0.000E+00

     total energy              =    -329.37080309 Ry
     Harris-Foulkes estimate   =    -329.54535117 Ry
     estimated scf accuracy    <       0.28813818 Ry

[...]

     End of self-consistent calculation

          k = 0.0000 0.0000 0.0000 ( 22119 PWs)   bands (ev):

    -8.5502  -7.9051  -7.6456  -7.1854  -6.9197  -6.9006  -6.8605  -6.5529
    -6.2271  -6.1705  -6.0617  -5.7948  -5.7536  -5.6685  -5.4308  -5.3502
    -5.2916  -5.2617  -5.2192  -5.1661  -5.1497  -5.1462  -4.9908  -4.9174
    -4.9017  -4.6663  -4.4531  -3.7095  -2.5110  -2.1896  -0.5758  -0.2035
     0.4962   0.8862

     the Fermi energy is    -3.6723 ev

!    total energy              =    -329.48504667 Ry
     Harris-Foulkes estimate   =    -329.48504667 Ry
     estimated scf accuracy    <          4.5E-09 Ry

     The total energy is the sum of the following terms:

     one-electron contribution =    -612.96642037 Ry
     hartree contribution      =     327.88687989 Ry
     xc contribution           =     -51.42335248 Ry
     ewald contribution        =       7.02329422 Ry
     smearing contrib. (-TS)   =      -0.00544793 Ry

     convergence has been achieved in  12 iterations

     Forces acting on atoms (Ry/au):

     atom    1 type  1   force =    -0.01172585   -0.00525640   -0.01983725
     atom    2 type  1   force =     0.01508890    0.00481901    0.01864287
     atom    3 type  1   force =     0.00365168    0.00364937    0.00589484
     atom    4 type  1   force =    -0.02871913    0.00383539    0.01101366
     atom    5 type  1   force =     0.02170440   -0.00704737   -0.01571412

     Total force =     0.054286     Total SCF correction =     0.000245

     BFGS Geometry Optimization

     number of scf cycles    =   1
     number of bfgs steps    =   0

     energy   new            =    -329.4850466677 Ry

     new trust radius        =       0.0309967617 bohr
     new conv_thr            =       0.0000000100 Ry

ATOMIC_POSITIONS (bohr)
Au      -1.771220854   1.921162601  -0.637820250
Au      -0.864344095   3.118703012   4.170209866
Au       3.072030676   1.668038373   0.601157840
Au       4.167675872   3.414769386   5.808794662
Au       7.701117402   2.220413628   2.487170882

     Writing output data file pwscf.save
     Check: negative starting charge=   -0.006465
     NEW-OLD atomic charge density approx. for the potential
     Check: negative starting charge=   -0.006445

[...]

     energy   old            =    -329.4850466677 Ry
     energy   new            =    -329.4875072421 Ry

     CASE: energy  _new < energy  _old

[...]

     number of scf cycles    =  31
     number of bfgs steps    =  30

     energy   old            =    -329.4912087107 Ry
     energy   new            =    -329.4912236231 Ry

     CASE: energy  _new < energy  _old

     new trust radius        =       0.0065938459 bohr
     new conv_thr            =            1.0E-10 Ry

ATOMIC_POSITIONS (bohr)
Au      -1.744625078   1.926685522  -0.798620180
Au      -0.841835371   3.134152799   4.158990538
Au       3.081009679   1.934765054   0.664744065
Au       4.045101391   3.330614046   5.857757904
Au       7.765608379   2.016869579   2.546640673

     Writing output data file pwscf.save
     Check: negative starting charge=   -0.006561
     NEW-OLD atomic charge density approx. for the potential
     Check: negative starting charge=   -0.006564

     negative rho (up, down):  4.246E-07 0.000E+00

     Self-consistent Calculation

[...]

     Threshold (ethr) on eigenvalues was too large:
     Diagonalizing with lowered threshold

     Davidson diagonalization with overlap
     ethr =  1.21E-08,  avg # of iterations =  1.0

[...]

     total energy              =    -329.49123219 Ry
     Harris-Foulkes estimate   =    -329.49123223 Ry
     estimated scf accuracy    <          2.6E-10 Ry

     iteration #  9     ecut=    30.00 Ry     beta=0.70
     Davidson diagonalization with overlap
     ethr =  4.73E-13,  avg # of iterations =  2.0

     End of self-consistent calculation

          k = 0.0000 0.0000 0.0000 ( 22119 PWs)   bands (ev):

    -8.5220  -7.7903  -7.6636  -7.2356  -6.8580  -6.8277  -6.6118  -6.4877
    -6.3116  -6.0856  -5.9577  -5.7745  -5.7371  -5.6880  -5.4634  -5.3672
    -5.3179  -5.2509  -5.1987  -5.1897  -5.1753  -5.1261  -4.9979  -4.9228
    -4.8404  -4.7367  -4.4791  -3.7819  -2.4977  -2.2069  -0.5788  -0.2057
     0.4870   0.9235

     the Fermi energy is    -3.7496 ev

!    total energy              =    -329.49123220 Ry
     Harris-Foulkes estimate   =    -329.49123219 Ry
     estimated scf accuracy    <          4.8E-11 Ry

     The total energy is the sum of the following terms:

     one-electron contribution =    -610.18257741 Ry
     hartree contribution      =     326.51644229 Ry
     xc contribution           =     -51.40349433 Ry
     ewald contribution        =       5.58266980 Ry
     smearing contrib. (-TS)   =      -0.00427256 Ry

     convergence has been achieved in   9 iterations

     Forces acting on atoms (Ry/au):

     atom    1 type  1   force =    -0.00072377    0.00036398   -0.00001149
     atom    2 type  1   force =     0.00013654    0.00051707   -0.00035804
     atom    3 type  1   force =     0.00059401   -0.00040089    0.00003462
     atom    4 type  1   force =     0.00033955   -0.00006474    0.00019585
     atom    5 type  1   force =    -0.00034633   -0.00041541    0.00013907

     Total force =     0.001434     Total SCF correction =     0.000025

     bfgs converged in  32 scf cycles and  31 bfgs steps
     (criteria: energy <  1.0E-04, force <  1.0E-03)

     End of BFGS Geometry Optimization

     Final energy   =    -329.4912322019 Ry
Begin final coordinates

ATOMIC_POSITIONS (bohr)
Au      -1.744625078   1.926685522  -0.798620180
Au      -0.841835371   3.134152799   4.158990538
Au       3.081009679   1.934765054   0.664744065
Au       4.045101391   3.330614046   5.857757904
Au       7.765608379   2.016869579   2.546640673
End final coordinates

     Writing output data file pwscf.save

     General routines

     Parallel routines

   This run was terminated on:  20:40:22   3Aug2017

   JOB DONE.