     Program PWSCF v.6.0 (svn rev. 13079) starts on  3Aug2017 at 18: 9:44

     Current dimensions of program PWSCF are:
     Max number of different atomic species (ntypx) = 10
     Max number of k-points (npk) =  40000
     Max angular momentum in pseudopotentials (lmaxx) =  3
     Message from routine iosys:
     pot_extrapolation='second-order' not available, using 'atomic'
     Message from routine iosys:
     wfc_extrapolation='second-order' not available, using 'atomic'

     Subspace diagonalization in iterative solution of the eigenvalue problem:
     a serial algorithm will be used

     bravais-lattice index     =            1
     lattice parameter (alat)  =      20.0000  a.u.
     unit-cell volume          =    8000.0000 (a.u.)^3
     number of atoms/cell      =            5
     number of atomic types    =            1
     number of electrons       =        55.00
     number of Kohn-Sham states=           34
     kinetic-energy cutoff     =      30.0000  Ry
     charge density cutoff     =     120.0000  Ry
     convergence threshold     =      1.0E-08
     mixing beta               =       0.7000
     number of iterations used =            8  plain     mixing
     Exchange-correlation      = BLYP ( 1  3  1  3 0 0)
     nstep                     =           50

     celldm(1)=  20.000000  celldm(2)=   0.000000  celldm(3)=   0.000000
     celldm(4)=   0.000000  celldm(5)=   0.000000  celldm(6)=   0.000000

     crystal axes: (cart. coord. in units of alat)
               a(1) = (   1.000000   0.000000   0.000000 )
               a(2) = (   0.000000   1.000000   0.000000 )
               a(3) = (   0.000000   0.000000   1.000000 )

     reciprocal axes: (cart. coord. in units 2 pi/alat)
               b(1) = (  1.000000  0.000000  0.000000 )
               b(2) = (  0.000000  1.000000  0.000000 )
               b(3) = (  0.000000  0.000000  1.000000 )

     PseudoPot. # 1 for Au read from file:
     ./Au.blyp-d-hgh.UPF
     MD5 check sum: c10d8bae01f806c36a1643a1c69a8479
     Pseudo is Norm-conserving, Zval = 11.0
     Generated in analytical, separable form
     Using radial grid of 1279 points,  6 beta functions with:
                l(1) =   0
                l(2) =   0
                l(3) =   1
                l(4) =   1
                l(5) =   2
                l(6) =   2

     atomic species   valence    mass     pseudopotential
        Au            11.00    28.08600     Au( 1.00)

     No symmetry found

   Cartesian axes

     site n.     atom                  positions (alat units)
         1           Au  tau(   1) = (  -0.0851901   0.0953874  -0.0415198  )
         2           Au  tau(   2) = (  -0.0400138   0.1837692   0.1919571  )
         3           Au  tau(   3) = (   0.1554294   0.0688200   0.0258508  )
         4           Au  tau(   4) = (   0.2018569   0.1981954   0.2731044  )
         5           Au  tau(   5) = (   0.3737543   0.0584164   0.1489839  )

     number of k points=     1  Marzari-Vanderbilt smearing, width (Ry)=  0.0250
                       cart. coord. in units 2pi/alat
        k(    1) = (   0.0000000   0.0000000   0.0000000), wk =   2.0000000

     Initial potential from superposition of free atoms
     Check: negative starting charge=   -0.006324

     starting charge   54.99940, renormalised to   55.00000

     negative rho (up, down):  6.324E-03 0.000E+00
     Starting wfc are   45 randomized atomic wfcs

     Self-consistent Calculation

     iteration #  1     ecut=    30.00 Ry     beta=0.70
     Davidson diagonalization with overlap
     ethr =  1.00E-02,  avg # of iterations =  3.0

     Threshold (ethr) on eigenvalues was too large:
     Diagonalizing with lowered threshold

     Davidson diagonalization with overlap
     ethr =  4.02E-04,  avg # of iterations =  6.0

     negative rho (up, down):  8.548E-04 0.000E+00

     total energy              =    -329.37774701 Ry
     Harris-Foulkes estimate   =    -329.54546331 Ry
     estimated scf accuracy    <       0.27891003 Ry

[...]

     End of self-consistent calculation

          k = 0.0000 0.0000 0.0000 ( 22119 PWs)   bands (ev):

    -8.4165  -7.7370  -7.6377  -7.1677  -6.9754  -6.7791  -6.7543  -6.4503
    -6.2623  -6.0637  -5.9870  -5.7658  -5.7262  -5.6614  -5.4152  -5.3263
    -5.3070  -5.2187  -5.1763  -5.1729  -5.1629  -5.1332  -4.9690  -4.8844
    -4.8435  -4.6880  -4.3798  -3.7932  -2.4606  -2.1537  -0.5199  -0.2129
     0.5172   0.7413

     the Fermi energy is    -3.7788 ev

!    total energy              =    -329.48845963 Ry
     Harris-Foulkes estimate   =    -329.48845960 Ry
     estimated scf accuracy    <          4.5E-09 Ry

     The total energy is the sum of the following terms:

     one-electron contribution =    -608.34703049 Ry
     hartree contribution      =     325.64669719 Ry
     xc contribution           =     -51.41741230 Ry
     ewald contribution        =       4.62987089 Ry
     smearing contrib. (-TS)   =      -0.00058491 Ry

     convergence has been achieved in  12 iterations

     Forces acting on atoms (Ry/au):

     atom    1 type  1   force =    -0.00612790   -0.00248423   -0.00984184
     atom    2 type  1   force =    -0.00049171    0.00110532   -0.00130915
     atom    3 type  1   force =    -0.00502821    0.00597418    0.01110340
     atom    4 type  1   force =     0.00209264   -0.00091067    0.00122509
     atom    5 type  1   force =     0.00955518   -0.00368460   -0.00117750

     Total force =     0.021000     Total SCF correction =     0.000319

     BFGS Geometry Optimization

     number of scf cycles    =   1
     number of bfgs steps    =   0

     energy   new            =    -329.4884596281 Ry

     new trust radius        =       0.0135742149 bohr
     new conv_thr            =       0.0000000100 Ry

ATOMIC_POSITIONS (bohr)
Au      -1.709929905   1.905263767  -0.840237839
Au      -0.800767706   3.676490320   3.837833851
Au       3.103559790   1.382374181   0.528120404
Au       4.039230639   3.962998330   5.463314087
Au       7.484641182   1.164643403   2.978500498

     Writing output data file pwscf.save
     Check: negative starting charge=   -0.006324
     NEW-OLD atomic charge density approx. for the potential
     Check: negative starting charge=   -0.006316

[...]

     energy   old            =    -329.4884596281 Ry
     energy   new            =    -329.4888788724 Ry

     CASE: energy  _new < energy  _old

     WARNING: bfgs curvature condition failed, Theta= 0.891
     new trust radius        =       0.0149316364 bohr
     new conv_thr            =       0.0000000004 Ry

[...]

     WARNING: bfgs curvature condition failed, Theta= 0.603
     new trust radius        =       0.0551030450 bohr
     new conv_thr            =            1.0E-10 Ry

[...]

     WARNING: info=  5 for Hessian
     uphill step: resetting bfgs history

[...]

     number of scf cycles    =  42
     number of bfgs steps    =  41

     energy   old            =    -329.4933968575 Ry
     energy   new            =    -329.4934068405 Ry

     CASE: energy  _new < energy  _old

     new trust radius        =       0.0071399894 bohr
     new conv_thr            =            1.0E-10 Ry

ATOMIC_POSITIONS (bohr)
Au      -1.598938516   1.996598149  -1.081241444
Au      -0.772929305   4.191988350   3.525220956
Au       3.038418084   1.342254581   0.809382636
Au       3.911588248   3.598563428   5.644359887
Au       7.538595489   0.962365492   3.069808965

     Writing output data file pwscf.save
     Check: negative starting charge=   -0.006359
     NEW-OLD atomic charge density approx. for the potential
     Check: negative starting charge=   -0.006353

     negative rho (up, down):  1.256E-06 0.000E+00

     Self-consistent Calculation

[...]

     Threshold (ethr) on eigenvalues was too large:
     Diagonalizing with lowered threshold

     Davidson diagonalization with overlap
     ethr =  1.81E-08,  avg # of iterations =  1.0

[...]

     total energy              =    -329.49341850 Ry
     Harris-Foulkes estimate   =    -329.49341850 Ry
     estimated scf accuracy    <          2.4E-10 Ry

     iteration #  9     ecut=    30.00 Ry     beta=0.70
     Davidson diagonalization with overlap
     ethr =  4.33E-13,  avg # of iterations =  2.0

     End of self-consistent calculation

          k = 0.0000 0.0000 0.0000 ( 22119 PWs)   bands (ev):

    -8.4985  -7.7664  -7.6452  -7.2214  -6.8542  -6.8077  -6.6044  -6.4689
    -6.3032  -6.0712  -5.9511  -5.7682  -5.7248  -5.6831  -5.4504  -5.3588
    -5.3155  -5.2413  -5.2032  -5.1768  -5.1686  -5.1239  -5.0002  -4.9235
    -4.8399  -4.7338  -4.4774  -3.7790  -2.4475  -2.1967  -0.5299  -0.1731
     0.4858   0.7953

     the Fermi energy is    -3.7466 ev

!    total energy              =    -329.49341849 Ry
     Harris-Foulkes estimate   =    -329.49341850 Ry
     estimated scf accuracy    <          5.5E-11 Ry

     The total energy is the sum of the following terms:

     one-electron contribution =    -606.30743937 Ry
     hartree contribution      =     324.59220171 Ry
     xc contribution           =     -51.39752789 Ry
     ewald contribution        =       3.62365556 Ry
     smearing contrib. (-TS)   =      -0.00430849 Ry

     convergence has been achieved in   9 iterations

     Forces acting on atoms (Ry/au):

     atom    1 type  1   force =    -0.00011205    0.00060279   -0.00029791
     atom    2 type  1   force =     0.00069725   -0.00070271   -0.00049115
     atom    3 type  1   force =    -0.00048220    0.00046812    0.00073014
     atom    4 type  1   force =     0.00078967    0.00014423   -0.00065023
     atom    5 type  1   force =    -0.00089267   -0.00051243    0.00070914

     Total force =     0.002302     Total SCF correction =     0.000027

     bfgs converged in  43 scf cycles and  42 bfgs steps
     (criteria: energy <  1.0E-04, force <  1.0E-03)

     End of BFGS Geometry Optimization

     Final energy   =    -329.4934184881 Ry
Begin final coordinates

ATOMIC_POSITIONS (bohr)
Au      -1.598938516   1.996598149  -1.081241444
Au      -0.772929305   4.191988350   3.525220956
Au       3.038418084   1.342254581   0.809382636
Au       3.911588248   3.598563428   5.644359887
Au       7.538595489   0.962365492   3.069808965
End final coordinates

     Writing output data file pwscf.save

     General routines

     Parallel routines

   This run was terminated on:  18:11:34   3Aug2017

   JOB DONE.