     Program PWSCF v.6.0 (svn rev. 13079) starts on  4Aug2017 at  5: 7:57

     Current dimensions of program PWSCF are:
     Max number of different atomic species (ntypx) = 10
     Max number of k-points (npk) =  40000
     Max angular momentum in pseudopotentials (lmaxx) =  3
     Message from routine iosys:
     pot_extrapolation='second-order' not available, using 'atomic'
     Message from routine iosys:
     wfc_extrapolation='second-order' not available, using 'atomic'

     Subspace diagonalization in iterative solution of the eigenvalue problem:
     a serial algorithm will be used

     bravais-lattice index     =            1
     lattice parameter (alat)  =      20.0000  a.u.
     unit-cell volume          =    8000.0000 (a.u.)^3
     number of atoms/cell      =            5
     number of atomic types    =            1
     number of electrons       =        55.00
     number of Kohn-Sham states=           34
     kinetic-energy cutoff     =      30.0000  Ry
     charge density cutoff     =     120.0000  Ry
     convergence threshold     =      1.0E-08
     mixing beta               =       0.7000
     number of iterations used =            8  plain     mixing
     Exchange-correlation      = BLYP ( 1  3  1  3 0 0)
     nstep                     =           50

     celldm(1)=  20.000000  celldm(2)=   0.000000  celldm(3)=   0.000000
     celldm(4)=   0.000000  celldm(5)=   0.000000  celldm(6)=   0.000000

     crystal axes: (cart. coord. in units of alat)
               a(1) = (   1.000000   0.000000   0.000000 )
               a(2) = (   0.000000   1.000000   0.000000 )
               a(3) = (   0.000000   0.000000   1.000000 )

     reciprocal axes: (cart. coord. in units 2 pi/alat)
               b(1) = (  1.000000  0.000000  0.000000 )
               b(2) = (  0.000000  1.000000  0.000000 )
               b(3) = (  0.000000  0.000000  1.000000 )

     PseudoPot. # 1 for Au read from file:
     ./Au.blyp-d-hgh.UPF
     MD5 check sum: c10d8bae01f806c36a1643a1c69a8479
     Pseudo is Norm-conserving, Zval = 11.0
     Generated in analytical, separable form
     Using radial grid of 1279 points,  6 beta functions with:
                l(1) =   0
                l(2) =   0
                l(3) =   1
                l(4) =   1
                l(5) =   2
                l(6) =   2

     atomic species   valence    mass     pseudopotential
        Au            11.00    28.08600     Au( 1.00)

     No symmetry found

   Cartesian axes

     site n.     atom                  positions (alat units)
         1           Au  tau(   1) = (  -0.0588477   0.0095274   0.0246431  )
         2           Au  tau(   2) = (   0.0060190   0.1822960   0.1895498  )
         3           Au  tau(   3) = (   0.1601186   0.1762125  -0.0087457  )
         4           Au  tau(   4) = (   0.2367125   0.2457924   0.2776154  )
         5           Au  tau(   5) = (   0.2721479   0.0151330   0.1660041  )

     number of k points=     1  Marzari-Vanderbilt smearing, width (Ry)=  0.0250
                       cart. coord. in units 2pi/alat
        k(    1) = (   0.0000000   0.0000000   0.0000000), wk =   2.0000000

     Initial potential from superposition of free atoms
     Check: negative starting charge=   -0.006022

     starting charge   54.99940, renormalised to   55.00000

     negative rho (up, down):  6.022E-03 0.000E+00
     Starting wfc are   45 randomized atomic wfcs

     Self-consistent Calculation

     iteration #  1     ecut=    30.00 Ry     beta=0.70
     Davidson diagonalization with overlap
     ethr =  1.00E-02,  avg # of iterations =  4.0

     Threshold (ethr) on eigenvalues was too large:
     Diagonalizing with lowered threshold

     Davidson diagonalization with overlap
     ethr =  3.74E-04,  avg # of iterations =  4.0

     negative rho (up, down):  7.330E-04 0.000E+00

     total energy              =    -329.31593801 Ry
     Harris-Foulkes estimate   =    -329.47411075 Ry
     estimated scf accuracy    <       0.26278709 Ry

[...]

     End of self-consistent calculation

          k = 0.0000 0.0000 0.0000 ( 22119 PWs)   bands (ev):

    -8.4051  -7.7957  -7.4576  -7.2140  -6.9798  -6.8001  -6.7162  -6.4828
    -6.4086  -6.1207  -5.8291  -5.7972  -5.6607  -5.5565  -5.4888  -5.3837
    -5.2783  -5.2059  -5.1337  -5.0933  -5.0586  -4.9891  -4.9332  -4.9078
    -4.6889  -4.5209  -4.1791  -3.4729  -3.0803  -2.1503  -0.2509   0.0288
     0.2821   0.4137

     the Fermi energy is    -3.4498 ev

!    total energy              =    -329.41764591 Ry
     Harris-Foulkes estimate   =    -329.41764598 Ry
     estimated scf accuracy    <          7.4E-09 Ry

     The total energy is the sum of the following terms:

     one-electron contribution =    -625.19368275 Ry
     hartree contribution      =     334.13989627 Ry
     xc contribution           =     -51.39360344 Ry
     ewald contribution        =      13.03587998 Ry
     smearing contrib. (-TS)   =      -0.00613598 Ry

     convergence has been achieved in  12 iterations

     Forces acting on atoms (Ry/au):

     atom    1 type  1   force =    -0.00210970   -0.00028454   -0.01882242
     atom    2 type  1   force =    -0.01466789    0.01008295    0.02928217
     atom    3 type  1   force =     0.00632937   -0.02122246   -0.01033469
     atom    4 type  1   force =     0.00473726    0.00138997    0.00384770
     atom    5 type  1   force =     0.00571096    0.01003408   -0.00397276

     Total force =     0.048152     Total SCF correction =     0.000358

     BFGS Geometry Optimization

     number of scf cycles    =   1
     number of bfgs steps    =   0

     energy   new            =    -329.4176459065 Ry

     new trust radius        =       0.0342674577 bohr
     new conv_thr            =       0.0000000100 Ry

ATOMIC_POSITIONS (bohr)
Au      -1.179063701   0.190264461   0.474039578
Au       0.105712106   3.656002946   3.820277175
Au       3.208701373   3.503026542  -0.185247692
Au       4.738986260   4.917238967   5.556156697
Au       5.448668962   0.312693084   3.316110243

     Writing output data file pwscf.save
     Check: negative starting charge=   -0.006022
     NEW-OLD atomic charge density approx. for the potential
     Check: negative starting charge=   -0.006007

[...]

     energy   old            =    -329.4176459065 Ry
     energy   new            =    -329.4197451968 Ry

     CASE: energy  _new < energy  _old

     WARNING: bfgs curvature condition failed, Theta= 0.984
     new trust radius        =       0.0376942034 bohr
     new conv_thr            =       0.0000000021 Ry

[...]

     WARNING: info=  7 for Hessian
     new trust radius        =       0.0189359529 bohr
     new conv_thr            =       0.0000000002 Ry

[...]

     WARNING: info=  7 for Hessian
     uphill step: resetting bfgs history

[...]

     iteration #  1     ecut=    30.00 Ry     beta=0.70
     Davidson diagonalization with overlap
     c_bands:  1 eigenvalues not converged
     ethr =  1.00E-06,  avg # of iterations = 20.0

[...]

     Threshold (ethr) on eigenvalues was too large:
     Diagonalizing with lowered threshold

     Davidson diagonalization with overlap
     ethr =  5.06E-08,  avg # of iterations =  1.0

[...]

     WARNING: bfgs curvature condition failed, Theta= 0.996
     new trust radius        =       0.0288419528 bohr
     new conv_thr            =       0.0000000002 Ry

[...]

     Self-consistent Calculation

[...]

     total energy              =    -329.49200201 Ry
     Harris-Foulkes estimate   =    -329.49200200 Ry
     estimated scf accuracy    <          3.1E-09 Ry

     iteration # 10     ecut=    30.00 Ry     beta=0.70
     Davidson diagonalization with overlap
     ethr =  5.66E-12,  avg # of iterations =  3.0

     End of self-consistent calculation

          k = 0.0000 0.0000 0.0000 ( 22119 PWs)   bands (ev):

    -8.4353  -7.7492  -7.6284  -7.2469  -6.9351  -6.7790  -6.6312  -6.4584
    -6.3261  -6.0436  -5.9657  -5.7568  -5.7217  -5.6427  -5.4238  -5.3832
    -5.3151  -5.2228  -5.1984  -5.1849  -5.1670  -5.1237  -4.9991  -4.9014
    -4.8912  -4.6784  -4.4688  -3.7488  -2.4435  -2.1935  -0.5162  -0.2018
     0.3827   0.7430

     the Fermi energy is    -3.7142 ev

!    total energy              =    -329.49200198 Ry
     Harris-Foulkes estimate   =    -329.49200201 Ry
     estimated scf accuracy    <          2.7E-10 Ry

     The total energy is the sum of the following terms:

     one-electron contribution =    -603.59809474 Ry
     hartree contribution      =     323.24648712 Ry
     xc contribution           =     -51.39767631 Ry
     ewald contribution        =       2.26206538 Ry
     smearing contrib. (-TS)   =      -0.00478343 Ry

     convergence has been achieved in  10 iterations

     Forces acting on atoms (Ry/au):

     atom    1 type  1   force =    -0.00378952    0.00456344    0.00093618
     atom    2 type  1   force =     0.00203164   -0.00457816    0.00097373
     atom    3 type  1   force =     0.00408198   -0.00225865   -0.00148113
     atom    4 type  1   force =    -0.00117198    0.00323193   -0.00028469
     atom    5 type  1   force =    -0.00115211   -0.00095856   -0.00014409

     Total force =     0.010011     Total SCF correction =     0.000076

     number of scf cycles    =  50
     number of bfgs steps    =  49

     energy   old            =    -329.4915688028 Ry
     energy   new            =    -329.4920019820 Ry

     CASE: energy  _new < energy  _old

     new trust radius        =       0.0608947760 bohr
     new conv_thr            =       0.0000000004 Ry

ATOMIC_POSITIONS (bohr)
Au      -2.137741852   1.596468942  -0.052778230
Au       0.934916319   3.694749539   3.429940312
Au       2.803901745   0.307613946  -0.352408508
Au       4.439607950   4.944137143   6.886739337
Au       6.282320838   2.036256430   3.069843088

     Writing output data file pwscf.save
     Check: negative starting charge=   -0.006193
     NEW-OLD atomic charge density approx. for the potential
     Check: negative starting charge=   -0.006168

     negative rho (up, down):  7.479E-04 0.000E+00

     Writing output data file pwscf.save

     General routines

     Parallel routines

   This run was terminated on:   5:10:19   4Aug2017

   JOB DONE.