     Program PWSCF v.6.0 (svn rev. 13079) starts on  3Aug2017 at 19: 9:27

     Current dimensions of program PWSCF are:
     Max number of different atomic species (ntypx) = 10
     Max number of k-points (npk) =  40000
     Max angular momentum in pseudopotentials (lmaxx) =  3
     Message from routine iosys:
     pot_extrapolation='second-order' not available, using 'atomic'
     Message from routine iosys:
     wfc_extrapolation='second-order' not available, using 'atomic'

     Subspace diagonalization in iterative solution of the eigenvalue problem:
     a serial algorithm will be used

     bravais-lattice index     =            1
     lattice parameter (alat)  =      20.0000  a.u.
     unit-cell volume          =    8000.0000 (a.u.)^3
     number of atoms/cell      =            5
     number of atomic types    =            1
     number of electrons       =        55.00
     number of Kohn-Sham states=           34
     kinetic-energy cutoff     =      30.0000  Ry
     charge density cutoff     =     120.0000  Ry
     convergence threshold     =      1.0E-08
     mixing beta               =       0.7000
     number of iterations used =            8  plain     mixing
     Exchange-correlation      = BLYP ( 1  3  1  3 0 0)
     nstep                     =           50

     celldm(1)=  20.000000  celldm(2)=   0.000000  celldm(3)=   0.000000
     celldm(4)=   0.000000  celldm(5)=   0.000000  celldm(6)=   0.000000

     crystal axes: (cart. coord. in units of alat)
               a(1) = (   1.000000   0.000000   0.000000 )
               a(2) = (   0.000000   1.000000   0.000000 )
               a(3) = (   0.000000   0.000000   1.000000 )

     reciprocal axes: (cart. coord. in units 2 pi/alat)
               b(1) = (  1.000000  0.000000  0.000000 )
               b(2) = (  0.000000  1.000000  0.000000 )
               b(3) = (  0.000000  0.000000  1.000000 )

     PseudoPot. # 1 for Au read from file:
     ./Au.blyp-d-hgh.UPF
     MD5 check sum: c10d8bae01f806c36a1643a1c69a8479
     Pseudo is Norm-conserving, Zval = 11.0
     Generated in analytical, separable form
     Using radial grid of 1279 points,  6 beta functions with:
                l(1) =   0
                l(2) =   0
                l(3) =   1
                l(4) =   1
                l(5) =   2
                l(6) =   2

     atomic species   valence    mass     pseudopotential
        Au            11.00    28.08600     Au( 1.00)

     No symmetry found

   Cartesian axes

     site n.     atom                  positions (alat units)
         1           Au  tau(   1) = (  -0.0834272   0.1124718  -0.0329981  )
         2           Au  tau(   2) = (  -0.0435354   0.1637239   0.2069181  )
         3           Au  tau(   3) = (   0.1579365   0.0849404   0.0261568  )
         4           Au  tau(   4) = (   0.2133875   0.1845468   0.2791060  )
         5           Au  tau(   5) = (   0.3876114   0.1004398   0.1262589  )

     number of k points=     1  Marzari-Vanderbilt smearing, width (Ry)=  0.0250
                       cart. coord. in units 2pi/alat
        k(    1) = (   0.0000000   0.0000000   0.0000000), wk =   2.0000000

     Initial potential from superposition of free atoms
     Check: negative starting charge=   -0.006516

     starting charge   54.99940, renormalised to   55.00000

     negative rho (up, down):  6.516E-03 0.000E+00
     Starting wfc are   45 randomized atomic wfcs

     Self-consistent Calculation

     iteration #  1     ecut=    30.00 Ry     beta=0.70
     Davidson diagonalization with overlap
     ethr =  1.00E-02,  avg # of iterations =  3.0

     Threshold (ethr) on eigenvalues was too large:
     Diagonalizing with lowered threshold

     Davidson diagonalization with overlap
     ethr =  4.22E-04,  avg # of iterations =  3.0

     negative rho (up, down):  9.012E-04 0.000E+00

     total energy              =    -329.36812740 Ry
     Harris-Foulkes estimate   =    -329.54360728 Ry
     estimated scf accuracy    <       0.28940033 Ry

[...]

     End of self-consistent calculation

          k = 0.0000 0.0000 0.0000 ( 22119 PWs)   bands (ev):

    -8.5131  -7.8910  -7.6477  -7.1421  -6.9690  -6.8911  -6.8403  -6.5493
    -6.2084  -6.1798  -6.0473  -5.7841  -5.7428  -5.6667  -5.4032  -5.3652
    -5.2949  -5.2742  -5.2134  -5.1600  -5.1584  -5.1346  -4.9883  -4.9179
    -4.9091  -4.6499  -4.4466  -3.7047  -2.5224  -2.1906  -0.5553  -0.1955
     0.5083   0.8715

     the Fermi energy is    -3.6677 ev

!    total energy              =    -329.48369642 Ry
     Harris-Foulkes estimate   =    -329.48369648 Ry
     estimated scf accuracy    <          6.9E-09 Ry

     The total energy is the sum of the following terms:

     one-electron contribution =    -612.10245924 Ry
     hartree contribution      =     327.46507768 Ry
     xc contribution           =     -51.42165431 Ry
     ewald contribution        =       6.58070872 Ry
     smearing contrib. (-TS)   =      -0.00536926 Ry

     convergence has been achieved in  11 iterations

     Forces acting on atoms (Ry/au):

     atom    1 type  1   force =    -0.00986419   -0.00584757   -0.02184380
     atom    2 type  1   force =     0.01802894    0.00605719    0.01952555
     atom    3 type  1   force =    -0.00116671    0.00396929    0.00712707
     atom    4 type  1   force =    -0.03055149    0.00506964    0.01017610
     atom    5 type  1   force =     0.02355344   -0.00924855   -0.01498493

     Total force =     0.057854     Total SCF correction =     0.000380

     BFGS Geometry Optimization

     number of scf cycles    =   1
     number of bfgs steps    =   0

     energy   new            =    -329.4836964242 Ry

     new trust radius        =       0.0325982764 bohr
     new conv_thr            =       0.0000000100 Ry

ATOMIC_POSITIONS (bohr)
Au      -1.678409190   2.243587427  -0.681806801
Au      -0.852678057   3.280534195   4.157888555
Au       3.157563290   1.702777286   0.530264071
Au       4.237197513   3.696005639   5.592297102
Au       7.775781443   1.999546453   2.510193074

     Writing output data file pwscf.save
     Check: negative starting charge=   -0.006516
     NEW-OLD atomic charge density approx. for the potential
     Check: negative starting charge=   -0.006503

[...]

     energy   old            =    -329.4836964242 Ry
     energy   new            =    -329.4865088964 Ry

     CASE: energy  _new < energy  _old

[...]

     number of scf cycles    =  21
     number of bfgs steps    =  20

     energy   old            =    -329.4911901718 Ry
     energy   new            =    -329.4912020719 Ry

     CASE: energy  _new < energy  _old

     new trust radius        =       0.0094216447 bohr
     new conv_thr            =            1.0E-10 Ry

ATOMIC_POSITIONS (bohr)
Au      -1.712854313   2.114247914  -0.818480270
Au      -0.737926520   3.408646680   4.095771038
Au       3.117361983   1.932966405   0.618041353
Au       4.174700935   3.588077356   5.722607122
Au       7.798172914   1.878512644   2.490896757

     Writing output data file pwscf.save
     Check: negative starting charge=   -0.006517
     NEW-OLD atomic charge density approx. for the potential
     Check: negative starting charge=   -0.006512

     negative rho (up, down):  5.214E-06 0.000E+00

     Self-consistent Calculation

[...]

     Threshold (ethr) on eigenvalues was too large:
     Diagonalizing with lowered threshold

     Davidson diagonalization with overlap
     ethr =  2.43E-08,  avg # of iterations =  2.0

[...]

     total energy              =    -329.49121840 Ry
     Harris-Foulkes estimate   =    -329.49121844 Ry
     estimated scf accuracy    <          2.1E-10 Ry

     iteration #  9     ecut=    30.00 Ry     beta=0.70
     Davidson diagonalization with overlap
     ethr =  3.86E-13,  avg # of iterations =  3.0

     End of self-consistent calculation

          k = 0.0000 0.0000 0.0000 ( 22119 PWs)   bands (ev):

    -8.5224  -7.7914  -7.6580  -7.2340  -6.8675  -6.8228  -6.6223  -6.4851
    -6.3053  -6.0809  -5.9634  -5.7741  -5.7364  -5.6900  -5.4582  -5.3717
    -5.3148  -5.2479  -5.1988  -5.1873  -5.1746  -5.1262  -4.9949  -4.9247
    -4.8420  -4.7308  -4.4762  -3.7804  -2.4922  -2.2033  -0.5699  -0.2020
     0.4984   0.8933

     the Fermi energy is    -3.7484 ev

!    total energy              =    -329.49121840 Ry
     Harris-Foulkes estimate   =    -329.49121840 Ry
     estimated scf accuracy    <          2.7E-11 Ry

     The total energy is the sum of the following terms:

     one-electron contribution =    -610.01082406 Ry
     hartree contribution      =     326.43199985 Ry
     xc contribution           =     -51.40384056 Ry
     ewald contribution        =       5.49566751 Ry
     smearing contrib. (-TS)   =      -0.00422114 Ry

     convergence has been achieved in   9 iterations

     Forces acting on atoms (Ry/au):

     atom    1 type  1   force =     0.00019587    0.00074110   -0.00090391
     atom    2 type  1   force =    -0.00070628   -0.00032808    0.00014671
     atom    3 type  1   force =     0.00023503   -0.00010635   -0.00037195
     atom    4 type  1   force =    -0.00056921    0.00036132    0.00094803
     atom    5 type  1   force =     0.00084459   -0.00066800    0.00018112

     Total force =     0.002187     Total SCF correction =     0.000019

     bfgs converged in  22 scf cycles and  21 bfgs steps
     (criteria: energy <  1.0E-04, force <  1.0E-03)

     End of BFGS Geometry Optimization

     Final energy   =    -329.4912184013 Ry
Begin final coordinates

ATOMIC_POSITIONS (bohr)
Au      -1.712854313   2.114247914  -0.818480270
Au      -0.737926520   3.408646680   4.095771038
Au       3.117361983   1.932966405   0.618041353
Au       4.174700935   3.588077356   5.722607122
Au       7.798172914   1.878512644   2.490896757
End final coordinates

     Writing output data file pwscf.save

     General routines

     Parallel routines

   This run was terminated on:  19:10:22   3Aug2017

   JOB DONE.