     Program PWSCF v.6.0 (svn rev. 13079) starts on  3Aug2017 at 22:39:15

     Current dimensions of program PWSCF are:
     Max number of different atomic species (ntypx) = 10
     Max number of k-points (npk) =  40000
     Max angular momentum in pseudopotentials (lmaxx) =  3
     Message from routine iosys:
     pot_extrapolation='second-order' not available, using 'atomic'
     Message from routine iosys:
     wfc_extrapolation='second-order' not available, using 'atomic'

     Subspace diagonalization in iterative solution of the eigenvalue problem:
     a serial algorithm will be used

     bravais-lattice index     =            1
     lattice parameter (alat)  =      20.0000  a.u.
     unit-cell volume          =    8000.0000 (a.u.)^3
     number of atoms/cell      =            5
     number of atomic types    =            1
     number of electrons       =        55.00
     number of Kohn-Sham states=           34
     kinetic-energy cutoff     =      30.0000  Ry
     charge density cutoff     =     120.0000  Ry
     convergence threshold     =      1.0E-08
     mixing beta               =       0.7000
     number of iterations used =            8  plain     mixing
     Exchange-correlation      = BLYP ( 1  3  1  3 0 0)
     nstep                     =           50

     celldm(1)=  20.000000  celldm(2)=   0.000000  celldm(3)=   0.000000
     celldm(4)=   0.000000  celldm(5)=   0.000000  celldm(6)=   0.000000

     crystal axes: (cart. coord. in units of alat)
               a(1) = (   1.000000   0.000000   0.000000 )
               a(2) = (   0.000000   1.000000   0.000000 )
               a(3) = (   0.000000   0.000000   1.000000 )

     reciprocal axes: (cart. coord. in units 2 pi/alat)
               b(1) = (  1.000000  0.000000  0.000000 )
               b(2) = (  0.000000  1.000000  0.000000 )
               b(3) = (  0.000000  0.000000  1.000000 )

     PseudoPot. # 1 for Au read from file:
     ./Au.blyp-d-hgh.UPF
     MD5 check sum: c10d8bae01f806c36a1643a1c69a8479
     Pseudo is Norm-conserving, Zval = 11.0
     Generated in analytical, separable form
     Using radial grid of 1279 points,  6 beta functions with:
                l(1) =   0
                l(2) =   0
                l(3) =   1
                l(4) =   1
                l(5) =   2
                l(6) =   2

     atomic species   valence    mass     pseudopotential
        Au            11.00    28.08600     Au( 1.00)

     No symmetry found

   Cartesian axes

     site n.     atom                  positions (alat units)
         1           Au  tau(   1) = (  -0.1108404   0.1025309  -0.0183092  )
         2           Au  tau(   2) = (   0.0052328   0.1897757   0.2148616  )
         3           Au  tau(   3) = (   0.1405660   0.0592227  -0.0130745  )
         4           Au  tau(   4) = (   0.2336120   0.2081412   0.2889521  )
         5           Au  tau(   5) = (   0.3716350   0.0561667   0.1159021  )

     number of k points=     1  Marzari-Vanderbilt smearing, width (Ry)=  0.0250
                       cart. coord. in units 2pi/alat
        k(    1) = (   0.0000000   0.0000000   0.0000000), wk =   2.0000000

     Initial potential from superposition of free atoms
     Check: negative starting charge=   -0.006227

     starting charge   54.99940, renormalised to   55.00000

     negative rho (up, down):  6.227E-03 0.000E+00
     Starting wfc are   45 randomized atomic wfcs

     Self-consistent Calculation

     iteration #  1     ecut=    30.00 Ry     beta=0.70
     Davidson diagonalization with overlap
     ethr =  1.00E-02,  avg # of iterations =  3.0

     Threshold (ethr) on eigenvalues was too large:
     Diagonalizing with lowered threshold

     Davidson diagonalization with overlap
     ethr =  5.59E-04,  avg # of iterations =  3.0

     negative rho (up, down):  8.206E-04 0.000E+00

     total energy              =    -329.27926842 Ry
     Harris-Foulkes estimate   =    -329.50995566 Ry
     estimated scf accuracy    <       0.36496297 Ry

[...]

     End of self-consistent calculation

          k = 0.0000 0.0000 0.0000 ( 22119 PWs)   bands (ev):

    -7.8647  -7.4671  -7.1448  -7.0617  -6.7365  -6.5856  -6.2813  -6.2072
    -6.1536  -5.8232  -5.7799  -5.5959  -5.4779  -5.4310  -5.3991  -5.3497
    -5.2701  -5.1405  -5.1139  -5.0901  -5.0000  -4.8093  -4.6506  -4.5885
    -4.5774  -4.4637  -4.3260  -4.1069  -2.5103  -2.2352  -0.4146  -0.3705
     0.5008   0.8575

     the Fermi energy is    -4.1291 ev

!    total energy              =    -329.45071572 Ry
     Harris-Foulkes estimate   =    -329.45071573 Ry
     estimated scf accuracy    <          9.1E-09 Ry

     The total energy is the sum of the following terms:

     one-electron contribution =    -579.52740160 Ry
     hartree contribution      =     311.62387129 Ry
     xc contribution           =     -51.41013389 Ry
     ewald contribution        =     -10.16358470 Ry
     smearing contrib. (-TS)   =       0.02653317 Ry

     convergence has been achieved in  18 iterations

     Forces acting on atoms (Ry/au):

     atom    1 type  1   force =     0.01870504    0.00602930    0.02049212
     atom    2 type  1   force =    -0.04555177   -0.01915727   -0.05301879
     atom    3 type  1   force =    -0.00388527    0.01251858    0.02980274
     atom    4 type  1   force =     0.05571258   -0.01230634   -0.00422263
     atom    5 type  1   force =    -0.02498058    0.01291573    0.00694656

     Total force =     0.105978     Total SCF correction =     0.000302

     BFGS Geometry Optimization

     number of scf cycles    =   1
     number of bfgs steps    =   0

     energy   new            =    -329.4507157199 Ry

     new trust radius        =       0.0724772893 bohr
     new conv_thr            =       0.0000000100 Ry

ATOMIC_POSITIONS (bohr)
Au      -2.198102959   2.056647299  -0.345691881
Au       0.059104226   3.776355735   4.244213206
Au       2.807434730   1.196971578  -0.231688257
Au       4.727951579   4.150516660   5.774819371
Au       7.407719424   1.136249728   2.324988560

     Writing output data file pwscf.save
     Check: negative starting charge=   -0.006227
     NEW-OLD atomic charge density approx. for the potential
     Check: negative starting charge=   -0.006289

[...]

     energy   old            =    -329.4507157199 Ry
     energy   new            =    -329.4604393965 Ry

     CASE: energy  _new < energy  _old

[...]

     WARNING: bfgs curvature condition failed, Theta= 0.916
     new trust radius        =       0.0254926112 bohr
     new conv_thr            =       0.0000000013 Ry

[...]

     Threshold (ethr) on eigenvalues was too large:
     Diagonalizing with lowered threshold

     Davidson diagonalization with overlap
     ethr =  7.46E-08,  avg # of iterations =  1.0

[...]

     WARNING: bfgs curvature condition failed, Theta= 0.095
     new trust radius        =       0.1490454128 bohr
     new conv_thr            =       0.0000000010 Ry

[...]

     iteration #  1     ecut=    30.00 Ry     beta=0.70
     Davidson diagonalization with overlap
     c_bands:  1 eigenvalues not converged
     ethr =  1.00E-06,  avg # of iterations = 20.0

[...]

     CASE: energy  _new < energy  _old

[...]

     iteration #  1     ecut=    30.00 Ry     beta=0.70
     Davidson diagonalization with overlap
     c_bands:  1 eigenvalues not converged
     ethr =  1.00E-06,  avg # of iterations = 20.0

[...]

     CASE: energy  _new > energy  _old

[...]

     new trust radius        =       0.0000055238 bohr

     trust_radius < trust_radius_min

     resetting bfgs history

     new conv_thr            =       0.0000000017 Ry

[...]

     new trust radius        =       0.0000307542 bohr

     trust_radius < trust_radius_min

     resetting bfgs history

     new conv_thr            =       0.0000000017 Ry

[...]

     Self-consistent Calculation

[...]

     total energy              =    -329.48683222 Ry
     Harris-Foulkes estimate   =    -329.48683220 Ry
     estimated scf accuracy    <          7.8E-09 Ry

     iteration #  8     ecut=    30.00 Ry     beta=0.70
     Davidson diagonalization with overlap
     ethr =  1.42E-11,  avg # of iterations =  2.0

     End of self-consistent calculation

          k = 0.0000 0.0000 0.0000 ( 22119 PWs)   bands (ev):

    -8.4896  -7.7256  -7.5184  -7.1935  -6.9761  -6.8110  -6.5361  -6.4541
    -6.2132  -6.0324  -6.0149  -5.7461  -5.7076  -5.6500  -5.4164  -5.3776
    -5.3231  -5.2184  -5.2115  -5.1968  -5.1595  -5.1184  -5.0154  -4.9967
    -4.9565  -4.5944  -4.5548  -3.7231  -2.5456  -2.2223  -0.5113  -0.1764
     0.4533   0.7488

     the Fermi energy is    -3.6821 ev

!    total energy              =    -329.48683225 Ry
     Harris-Foulkes estimate   =    -329.48683222 Ry
     estimated scf accuracy    <          1.1E-09 Ry

     The total energy is the sum of the following terms:

     one-electron contribution =    -602.68262895 Ry
     hartree contribution      =     322.78608808 Ry
     xc contribution           =     -51.38443474 Ry
     ewald contribution        =       1.80045797 Ry
     smearing contrib. (-TS)   =      -0.00631461 Ry

     convergence has been achieved in   8 iterations

     Forces acting on atoms (Ry/au):

     atom    1 type  1   force =    -0.00280015   -0.00093396   -0.00531422
     atom    2 type  1   force =     0.00925385    0.00972039    0.01470536
     atom    3 type  1   force =     0.01810602   -0.00429540    0.00210597
     atom    4 type  1   force =    -0.01548199   -0.00619578   -0.00965565
     atom    5 type  1   force =    -0.00907772    0.00170474   -0.00184146

     Total force =     0.035271     Total SCF correction =     0.000137

     number of scf cycles    =  50
     number of bfgs steps    =  22

     energy   old            =    -329.4905439060 Ry
     energy   new            =    -329.4868322490 Ry

     CASE: energy  _new > energy  _old

     new trust radius        =       0.0024749295 bohr
     new conv_thr            =       0.0000000017 Ry

ATOMIC_POSITIONS (bohr)
Au      -2.099431509   2.116570635  -0.560686797
Au      -0.248707533   3.919648986   3.835690856
Au       2.768374968   1.398411104   0.581185980
Au       4.858754756   4.031654800   5.499001673
Au       7.525116319   0.850455475   2.411449287

     Writing output data file pwscf.save
     Check: negative starting charge=   -0.006281
     NEW-OLD atomic charge density approx. for the potential
     Check: negative starting charge=   -0.006267

     negative rho (up, down):  4.958E-05 0.000E+00

     Writing output data file pwscf.save

     General routines

     Parallel routines

   This run was terminated on:  22:41:23   3Aug2017

   JOB DONE.