     Program PWSCF v.6.0 (svn rev. 13079) starts on  4Aug2017 at  1:55:42

     Current dimensions of program PWSCF are:
     Max number of different atomic species (ntypx) = 10
     Max number of k-points (npk) =  40000
     Max angular momentum in pseudopotentials (lmaxx) =  3
     Message from routine iosys:
     pot_extrapolation='second-order' not available, using 'atomic'
     Message from routine iosys:
     wfc_extrapolation='second-order' not available, using 'atomic'

     Subspace diagonalization in iterative solution of the eigenvalue problem:
     a serial algorithm will be used

     bravais-lattice index     =            1
     lattice parameter (alat)  =      20.0000  a.u.
     unit-cell volume          =    8000.0000 (a.u.)^3
     number of atoms/cell      =            5
     number of atomic types    =            1
     number of electrons       =        55.00
     number of Kohn-Sham states=           34
     kinetic-energy cutoff     =      30.0000  Ry
     charge density cutoff     =     120.0000  Ry
     convergence threshold     =      1.0E-08
     mixing beta               =       0.7000
     number of iterations used =            8  plain     mixing
     Exchange-correlation      = BLYP ( 1  3  1  3 0 0)
     nstep                     =           50

     celldm(1)=  20.000000  celldm(2)=   0.000000  celldm(3)=   0.000000
     celldm(4)=   0.000000  celldm(5)=   0.000000  celldm(6)=   0.000000

     crystal axes: (cart. coord. in units of alat)
               a(1) = (   1.000000   0.000000   0.000000 )
               a(2) = (   0.000000   1.000000   0.000000 )
               a(3) = (   0.000000   0.000000   1.000000 )

     reciprocal axes: (cart. coord. in units 2 pi/alat)
               b(1) = (  1.000000  0.000000  0.000000 )
               b(2) = (  0.000000  1.000000  0.000000 )
               b(3) = (  0.000000  0.000000  1.000000 )

     PseudoPot. # 1 for Au read from file:
     ./Au.blyp-d-hgh.UPF
     MD5 check sum: c10d8bae01f806c36a1643a1c69a8479
     Pseudo is Norm-conserving, Zval = 11.0
     Generated in analytical, separable form
     Using radial grid of 1279 points,  6 beta functions with:
                l(1) =   0
                l(2) =   0
                l(3) =   1
                l(4) =   1
                l(5) =   2
                l(6) =   2

     atomic species   valence    mass     pseudopotential
        Au            11.00    28.08600     Au( 1.00)

     No symmetry found

   Cartesian axes

     site n.     atom                  positions (alat units)
         1           Au  tau(   1) = (  -0.1159817   0.0892859  -0.0181523  )
         2           Au  tau(   2) = (   0.0030280   0.1540080   0.2053266  )
         3           Au  tau(   3) = (   0.1390419   0.0487804   0.0024846  )
         4           Au  tau(   4) = (   0.2299506   0.2183986   0.2902117  )
         5           Au  tau(   5) = (   0.3596616   0.0402533   0.1234487  )

     number of k points=     1  Marzari-Vanderbilt smearing, width (Ry)=  0.0250
                       cart. coord. in units 2pi/alat
        k(    1) = (   0.0000000   0.0000000   0.0000000), wk =   2.0000000

     Initial potential from superposition of free atoms
     Check: negative starting charge=   -0.006199

     starting charge   54.99940, renormalised to   55.00000

     negative rho (up, down):  6.199E-03 0.000E+00
     Starting wfc are   45 randomized atomic wfcs

     Self-consistent Calculation

     iteration #  1     ecut=    30.00 Ry     beta=0.70
     Davidson diagonalization with overlap
     ethr =  1.00E-02,  avg # of iterations =  3.0

     Threshold (ethr) on eigenvalues was too large:
     Diagonalizing with lowered threshold

     Davidson diagonalization with overlap
     ethr =  4.13E-04,  avg # of iterations =  7.0

     negative rho (up, down):  8.314E-04 0.000E+00

     total energy              =    -329.36020220 Ry
     Harris-Foulkes estimate   =    -329.52880995 Ry
     estimated scf accuracy    <       0.28686603 Ry

[...]

     End of self-consistent calculation

          k = 0.0000 0.0000 0.0000 ( 22119 PWs)   bands (ev):

    -8.0215  -7.5073  -7.4198  -7.1819  -6.7409  -6.5391  -6.4567  -6.3102
    -6.2085  -5.9772  -5.8260  -5.6113  -5.5967  -5.3847  -5.3720  -5.3569
    -5.3230  -5.2997  -5.2099  -5.1528  -5.0310  -4.9437  -4.6556  -4.5967
    -4.5488  -4.3608  -4.3489  -4.0228  -2.4288  -2.1965  -0.4112  -0.3183
     0.4675   0.8107

     the Fermi energy is    -4.0657 ev

!    total energy              =    -329.47099239 Ry
     Harris-Foulkes estimate   =    -329.47099239 Ry
     estimated scf accuracy    <          7.7E-10 Ry

     The total energy is the sum of the following terms:

     one-electron contribution =    -590.68667061 Ry
     hartree contribution      =     317.09383258 Ry
     xc contribution           =     -51.41187100 Ry
     ewald contribution        =      -4.48921447 Ry
     smearing contrib. (-TS)   =       0.02293110 Ry

     convergence has been achieved in  33 iterations

     Forces acting on atoms (Ry/au):

     atom    1 type  1   force =     0.01661350   -0.00014439    0.01081017
     atom    2 type  1   force =    -0.00895309   -0.01033929   -0.03021926
     atom    3 type  1   force =    -0.02474888    0.00891906    0.01186718
     atom    4 type  1   force =     0.02435759   -0.01569468   -0.01048126
     atom    5 type  1   force =    -0.00726913    0.01725929    0.01802316

     Total force =     0.062858     Total SCF correction =     0.000054

     BFGS Geometry Optimization

     number of scf cycles    =   1
     number of bfgs steps    =   0

     energy   new            =    -329.4709923935 Ry

     new trust radius        =       0.0331702050 bohr
     new conv_thr            =       0.0000000100 Ry

ATOMIC_POSITIONS (bohr)
Au      -2.303021498   1.785573614  -0.352234826
Au       0.051605912   3.069820708   4.076313739
Au       2.756089125   0.984527058   0.061559181
Au       4.623368593   4.352277325   5.793752744
Au       7.185963869   0.822325295   2.486996162

     Writing output data file pwscf.save
     Check: negative starting charge=   -0.006199
     NEW-OLD atomic charge density approx. for the potential
     Check: negative starting charge=   -0.006225

[...]

     energy   old            =    -329.4709923935 Ry
     energy   new            =    -329.4745817267 Ry

     CASE: energy  _new < energy  _old

     WARNING: bfgs curvature condition failed, Theta= 0.981
     new trust radius        =       0.0364872255 bohr
     new conv_thr            =       0.0000000023 Ry

[...]

     CASE: energy  _new < energy  _old

[...]

     CASE: energy  _new > energy  _old

[...]

     new trust radius        =       0.0000031804 bohr

     trust_radius < trust_radius_min

     resetting bfgs history

     new conv_thr            =       0.0000000009 Ry

[...]

     new trust radius        =       0.0000006198 bohr

     trust_radius < trust_radius_min

     resetting bfgs history

     new conv_thr            =       0.0000000009 Ry

[...]

     Self-consistent Calculation

[...]

     Threshold (ethr) on eigenvalues was too large:
     Diagonalizing with lowered threshold

     Davidson diagonalization with overlap
     ethr =  7.27E-08,  avg # of iterations =  1.0

[...]

     total energy              =    -329.48638770 Ry
     Harris-Foulkes estimate   =    -329.48638769 Ry
     estimated scf accuracy    <          8.8E-09 Ry

     iteration #  9     ecut=    30.00 Ry     beta=0.70
     Davidson diagonalization with overlap
     ethr =  1.59E-11,  avg # of iterations =  2.0

     End of self-consistent calculation

          k = 0.0000 0.0000 0.0000 ( 22119 PWs)   bands (ev):

    -8.1274  -7.6035  -7.4023  -7.2235  -7.1498  -6.5410  -6.4925  -6.4337
    -6.2429  -6.0272  -5.7035  -5.6282  -5.5732  -5.4706  -5.3488  -5.3056
    -5.2742  -5.2119  -5.1517  -5.1022  -5.0803  -4.8825  -4.5200  -4.4687
    -4.4213  -4.2410  -4.2221  -3.7970  -2.4797  -2.0937  -0.4706  -0.2436
     0.4383   0.8567

     the Fermi energy is    -3.8881 ev

!    total energy              =    -329.48638774 Ry
     Harris-Foulkes estimate   =    -329.48638770 Ry
     estimated scf accuracy    <          6.2E-10 Ry

     The total energy is the sum of the following terms:

     one-electron contribution =    -599.92762583 Ry
     hartree contribution      =     321.76863536 Ry
     xc contribution           =     -51.46817366 Ry
     ewald contribution        =       0.11529195 Ry
     smearing contrib. (-TS)   =       0.02548444 Ry

     convergence has been achieved in   9 iterations

     Forces acting on atoms (Ry/au):

     atom    1 type  1   force =     0.00819852    0.00223998   -0.00078386
     atom    2 type  1   force =    -0.00073633   -0.00048529    0.00108036
     atom    3 type  1   force =     0.00439920   -0.00118569    0.00659189
     atom    4 type  1   force =    -0.00479447   -0.00208632   -0.00323725
     atom    5 type  1   force =    -0.00706694    0.00151733   -0.00365114

     Total force =     0.015569     Total SCF correction =     0.000110

     number of scf cycles    =  50
     number of bfgs steps    =  16

     energy   old            =    -329.4868180657 Ry
     energy   new            =    -329.4863877352 Ry

     CASE: energy  _new > energy  _old

     new trust radius        =       0.0028849747 bohr
     new conv_thr            =       0.0000000009 Ry

ATOMIC_POSITIONS (bohr)
Au      -2.303068941   1.558832069  -0.473969510
Au      -0.159661810   3.403006491   3.817695533
Au       2.730254114   1.173411661   0.248988001
Au       4.683800253   3.865684495   5.823665239
Au       7.362682384   1.013589284   2.650007737

     Writing output data file pwscf.save
     Check: negative starting charge=   -0.006270
     NEW-OLD atomic charge density approx. for the potential
     Check: negative starting charge=   -0.006270

     negative rho (up, down):  3.737E-06 0.000E+00

     Writing output data file pwscf.save

     General routines

     Parallel routines

   This run was terminated on:   1:57:54   4Aug2017

   JOB DONE.