     Program PWSCF v.6.0 (svn rev. 13079) starts on  4Aug2017 at  7:49:24

     Current dimensions of program PWSCF are:
     Max number of different atomic species (ntypx) = 10
     Max number of k-points (npk) =  40000
     Max angular momentum in pseudopotentials (lmaxx) =  3
     Message from routine iosys:
     pot_extrapolation='second-order' not available, using 'atomic'
     Message from routine iosys:
     wfc_extrapolation='second-order' not available, using 'atomic'

     Subspace diagonalization in iterative solution of the eigenvalue problem:
     a serial algorithm will be used

     bravais-lattice index     =            1
     lattice parameter (alat)  =      20.0000  a.u.
     unit-cell volume          =    8000.0000 (a.u.)^3
     number of atoms/cell      =            5
     number of atomic types    =            1
     number of electrons       =        55.00
     number of Kohn-Sham states=           34
     kinetic-energy cutoff     =      30.0000  Ry
     charge density cutoff     =     120.0000  Ry
     convergence threshold     =      1.0E-08
     mixing beta               =       0.7000
     number of iterations used =            8  plain     mixing
     Exchange-correlation      = BLYP ( 1  3  1  3 0 0)
     nstep                     =           50

     celldm(1)=  20.000000  celldm(2)=   0.000000  celldm(3)=   0.000000
     celldm(4)=   0.000000  celldm(5)=   0.000000  celldm(6)=   0.000000

     crystal axes: (cart. coord. in units of alat)
               a(1) = (   1.000000   0.000000   0.000000 )
               a(2) = (   0.000000   1.000000   0.000000 )
               a(3) = (   0.000000   0.000000   1.000000 )

     reciprocal axes: (cart. coord. in units 2 pi/alat)
               b(1) = (  1.000000  0.000000  0.000000 )
               b(2) = (  0.000000  1.000000  0.000000 )
               b(3) = (  0.000000  0.000000  1.000000 )

     PseudoPot. # 1 for Au read from file:
     ./Au.blyp-d-hgh.UPF
     MD5 check sum: c10d8bae01f806c36a1643a1c69a8479
     Pseudo is Norm-conserving, Zval = 11.0
     Generated in analytical, separable form
     Using radial grid of 1279 points,  6 beta functions with:
                l(1) =   0
                l(2) =   0
                l(3) =   1
                l(4) =   1
                l(5) =   2
                l(6) =   2

     atomic species   valence    mass     pseudopotential
        Au            11.00    28.08600     Au( 1.00)

     No symmetry found

   Cartesian axes

     site n.     atom                  positions (alat units)
         1           Au  tau(   1) = (   0.0945482   0.0259273   0.0375051  )
         2           Au  tau(   2) = (   0.0048455   0.1857392   0.1974344  )
         3           Au  tau(   3) = (   0.1985070   0.2207041  -0.0431192  )
         4           Au  tau(   4) = (   0.2382065   0.2300895   0.1960581  )
         5           Au  tau(   5) = (   0.2530502  -0.0078239   0.2130689  )

     number of k points=     1  Marzari-Vanderbilt smearing, width (Ry)=  0.0250
                       cart. coord. in units 2pi/alat
        k(    1) = (   0.0000000   0.0000000   0.0000000), wk =   2.0000000

     Initial potential from superposition of free atoms
     Check: negative starting charge=   -0.006690

     starting charge   54.99940, renormalised to   55.00000

     negative rho (up, down):  6.690E-03 0.000E+00
     Starting wfc are   45 randomized atomic wfcs

     Self-consistent Calculation

     iteration #  1     ecut=    30.00 Ry     beta=0.70
     Davidson diagonalization with overlap
     ethr =  1.00E-02,  avg # of iterations =  3.0

     Threshold (ethr) on eigenvalues was too large:
     Diagonalizing with lowered threshold

     Davidson diagonalization with overlap
     ethr =  3.82E-04,  avg # of iterations =  2.0

     negative rho (up, down):  7.430E-04 0.000E+00

     total energy              =    -329.20423665 Ry
     Harris-Foulkes estimate   =    -329.36623956 Ry
     estimated scf accuracy    <       0.26559617 Ry

[...]

     End of self-consistent calculation

          k = 0.0000 0.0000 0.0000 ( 22119 PWs)   bands (ev):

    -9.4513  -8.2730  -8.0821  -7.9328  -7.8936  -7.7088  -7.5945  -7.4088
    -7.3565  -7.0852  -6.7382  -6.0711  -6.0000  -5.9153  -5.7774  -5.6934
    -5.5241  -5.2844  -5.1941  -5.1794  -5.0738  -5.0628  -5.0451  -4.9096
    -4.4935  -4.4144  -3.6625  -3.5179  -3.4483  -1.4963  -0.3059   0.0409
     0.2017   0.3422

     the Fermi energy is    -3.4998 ev

!    total energy              =    -329.30468743 Ry
     Harris-Foulkes estimate   =    -329.30468738 Ry
     estimated scf accuracy    <          8.8E-09 Ry

     The total energy is the sum of the following terms:

     one-electron contribution =    -688.97824088 Ry
     hartree contribution      =     365.38237160 Ry
     xc contribution           =     -51.58028329 Ry
     ewald contribution        =      45.89138994 Ry
     smearing contrib. (-TS)   =      -0.01992480 Ry

     convergence has been achieved in  14 iterations

     Forces acting on atoms (Ry/au):

     atom    1 type  1   force =    -0.06789979   -0.10788376   -0.06297197
     atom    2 type  1   force =    -0.10465292    0.02512563    0.03951170
     atom    3 type  1   force =     0.02927360    0.08296996   -0.10102899
     atom    4 type  1   force =     0.08619970    0.09369393    0.05580148
     atom    5 type  1   force =     0.05707941   -0.09390576    0.06868778

     Total force =     0.295676     Total SCF correction =     0.000267

     BFGS Geometry Optimization

     number of scf cycles    =   1
     number of bfgs steps    =   0

     energy   new            =    -329.3046874350 Ry

     new trust radius        =       0.1421786048 bohr
     new conv_thr            =       0.0000000100 Ry

ATOMIC_POSITIONS (bohr)
Au       1.823064214   0.410663241   0.687130028
Au      -0.007741923   3.739908625   3.988199698
Au       3.999414602   4.497052957  -0.963412990
Au       4.850329700   4.695482934   3.976963480
Au       5.118082407  -0.250382757   4.330065785

     Writing output data file pwscf.save
     Check: negative starting charge=   -0.006690
     NEW-OLD atomic charge density approx. for the potential
     Check: negative starting charge=   -0.006294

[...]

     energy   old            =    -329.3046874350 Ry
     energy   new            =    -329.3641300479 Ry

     CASE: energy  _new < energy  _old

[...]

     WARNING: bfgs curvature condition failed, Theta= 0.985
     new trust radius        =       0.0938649600 bohr
     new conv_thr            =       0.0000000007 Ry

[...]

     WARNING: info= 14 for Hessian
     new trust radius        =       0.2210408567 bohr
     new conv_thr            =       0.0000000016 Ry

[...]

     WARNING: info= 13 for Hessian
     uphill step: resetting bfgs history

[...]

     Threshold (ethr) on eigenvalues was too large:
     Diagonalizing with lowered threshold

     Davidson diagonalization with overlap
     ethr =  9.84E-08,  avg # of iterations =  1.0

[...]

     WARNING: bfgs curvature condition failed, Theta= 0.639
     new trust radius        =       0.0848680807 bohr
     new conv_thr            =       0.0000000004 Ry

[...]

     Self-consistent Calculation

[...]

     total energy              =    -329.43682883 Ry
     Harris-Foulkes estimate   =    -329.43682887 Ry
     estimated scf accuracy    <          3.8E-10 Ry

     iteration # 12     ecut=    30.00 Ry     beta=0.70
     Davidson diagonalization with overlap
     ethr =  6.97E-13,  avg # of iterations =  2.0

     End of self-consistent calculation

          k = 0.0000 0.0000 0.0000 ( 22119 PWs)   bands (ev):

    -8.3244  -7.6995  -7.2337  -7.0529  -6.8897  -6.7420  -6.6003  -6.5227
    -6.3901  -6.1488  -6.0059  -5.7456  -5.6772  -5.5971  -5.5010  -5.4959
    -5.2949  -5.2524  -5.2415  -5.1782  -5.0958  -5.0332  -5.0218  -4.8176
    -4.7619  -4.6944  -4.2676  -3.3512  -3.0617  -2.2798  -0.1370  -0.0409
     0.0606   0.4669

     the Fermi energy is    -3.3331 ev

!    total energy              =    -329.43682882 Ry
     Harris-Foulkes estimate   =    -329.43682883 Ry
     estimated scf accuracy    <          1.2E-10 Ry

     The total energy is the sum of the following terms:

     one-electron contribution =    -618.77060193 Ry
     hartree contribution      =     330.89940714 Ry
     xc contribution           =     -51.36321792 Ry
     ewald contribution        =       9.80856969 Ry
     smearing contrib. (-TS)   =      -0.01098581 Ry

     convergence has been achieved in  12 iterations

     Forces acting on atoms (Ry/au):

     atom    1 type  1   force =     0.00498788    0.00235499   -0.00041695
     atom    2 type  1   force =     0.01663201   -0.00013621   -0.00227367
     atom    3 type  1   force =    -0.00863498   -0.00187645    0.00037509
     atom    4 type  1   force =    -0.01423185    0.00311931    0.00071003
     atom    5 type  1   force =     0.00124693   -0.00346163    0.00160550

     Total force =     0.024890     Total SCF correction =     0.000042

     number of scf cycles    =  50
     number of bfgs steps    =  49

     energy   old            =    -329.4365559534 Ry
     energy   new            =    -329.4368288202 Ry

     CASE: energy  _new < energy  _old

     WARNING: info= 10 for Hessian
     uphill step: resetting bfgs history

     new trust radius        =       0.0167872575 bohr
     new conv_thr            =       0.0000000003 Ry

ATOMIC_POSITIONS (bohr)
Au       2.224718807   0.291363212   1.130287030
Au      -0.279438691   5.127581243   3.094972737
Au       3.011338915   5.019299469  -0.905355796
Au       4.842319189   3.810290367   4.352752567
Au       5.984210779  -1.155809290   4.346289461

     Writing output data file pwscf.save
     Check: negative starting charge=   -0.006023
     NEW-OLD atomic charge density approx. for the potential
     Check: negative starting charge=   -0.006026

     negative rho (up, down):  2.629E-05 0.000E+00

     Writing output data file pwscf.save

     General routines

     Parallel routines

   This run was terminated on:   7:51:49   4Aug2017

   JOB DONE.