     Program PWSCF v.6.0 (svn rev. 13079) starts on  3Aug2017 at 21:48:54

     Current dimensions of program PWSCF are:
     Max number of different atomic species (ntypx) = 10
     Max number of k-points (npk) =  40000
     Max angular momentum in pseudopotentials (lmaxx) =  3
     Message from routine iosys:
     pot_extrapolation='second-order' not available, using 'atomic'
     Message from routine iosys:
     wfc_extrapolation='second-order' not available, using 'atomic'

     Subspace diagonalization in iterative solution of the eigenvalue problem:
     a serial algorithm will be used

     bravais-lattice index     =            1
     lattice parameter (alat)  =      20.0000  a.u.
     unit-cell volume          =    8000.0000 (a.u.)^3
     number of atoms/cell      =            5
     number of atomic types    =            1
     number of electrons       =        55.00
     number of Kohn-Sham states=           34
     kinetic-energy cutoff     =      30.0000  Ry
     charge density cutoff     =     120.0000  Ry
     convergence threshold     =      1.0E-08
     mixing beta               =       0.7000
     number of iterations used =            8  plain     mixing
     Exchange-correlation      = BLYP ( 1  3  1  3 0 0)
     nstep                     =           50

     celldm(1)=  20.000000  celldm(2)=   0.000000  celldm(3)=   0.000000
     celldm(4)=   0.000000  celldm(5)=   0.000000  celldm(6)=   0.000000

     crystal axes: (cart. coord. in units of alat)
               a(1) = (   1.000000   0.000000   0.000000 )
               a(2) = (   0.000000   1.000000   0.000000 )
               a(3) = (   0.000000   0.000000   1.000000 )

     reciprocal axes: (cart. coord. in units 2 pi/alat)
               b(1) = (  1.000000  0.000000  0.000000 )
               b(2) = (  0.000000  1.000000  0.000000 )
               b(3) = (  0.000000  0.000000  1.000000 )

     PseudoPot. # 1 for Au read from file:
     ./Au.blyp-d-hgh.UPF
     MD5 check sum: c10d8bae01f806c36a1643a1c69a8479
     Pseudo is Norm-conserving, Zval = 11.0
     Generated in analytical, separable form
     Using radial grid of 1279 points,  6 beta functions with:
                l(1) =   0
                l(2) =   0
                l(3) =   1
                l(4) =   1
                l(5) =   2
                l(6) =   2

     atomic species   valence    mass     pseudopotential
        Au            11.00    28.08600     Au( 1.00)

     No symmetry found

   Cartesian axes

     site n.     atom                  positions (alat units)
         1           Au  tau(   1) = (  -0.1099998   0.1474011  -0.0261419  )
         2           Au  tau(   2) = (  -0.0021824   0.1183951   0.2111952  )
         3           Au  tau(   3) = (   0.1422645   0.1020032  -0.0025054  )
         4           Au  tau(   4) = (   0.2220794   0.2135631   0.2776338  )
         5           Au  tau(   5) = (   0.3516072   0.0528273   0.1195818  )

     number of k points=     1  Marzari-Vanderbilt smearing, width (Ry)=  0.0250
                       cart. coord. in units 2pi/alat
        k(    1) = (   0.0000000   0.0000000   0.0000000), wk =   2.0000000

     Initial potential from superposition of free atoms
     Check: negative starting charge=   -0.006245

     starting charge   54.99940, renormalised to   55.00000

     negative rho (up, down):  6.245E-03 0.000E+00
     Starting wfc are   45 randomized atomic wfcs

     Self-consistent Calculation

     iteration #  1     ecut=    30.00 Ry     beta=0.70
     Davidson diagonalization with overlap
     ethr =  1.00E-02,  avg # of iterations =  3.0

     Threshold (ethr) on eigenvalues was too large:
     Diagonalizing with lowered threshold

     Davidson diagonalization with overlap
     ethr =  3.77E-04,  avg # of iterations =  8.0

     negative rho (up, down):  8.350E-04 0.000E+00

     total energy              =    -329.36691717 Ry
     Harris-Foulkes estimate   =    -329.52618546 Ry
     estimated scf accuracy    <       0.26726769 Ry

[...]

     End of self-consistent calculation

          k = 0.0000 0.0000 0.0000 ( 22119 PWs)   bands (ev):

    -8.2676  -7.6927  -7.5717  -7.2495  -7.0219  -6.7092  -6.6694  -6.5055
    -6.2217  -5.9606  -5.9078  -5.7434  -5.6316  -5.5727  -5.5278  -5.4760
    -5.2409  -5.2040  -5.1572  -5.1444  -5.1292  -5.0036  -4.9616  -4.9189
    -4.8825  -4.4606  -4.4035  -3.7128  -2.4894  -2.2917  -0.3363  -0.1683
     0.3456   0.6693

     the Fermi energy is    -3.6914 ev

!    total energy              =    -329.47187301 Ry
     Harris-Foulkes estimate   =    -329.47187305 Ry
     estimated scf accuracy    <          3.9E-09 Ry

     The total energy is the sum of the following terms:

     one-electron contribution =    -609.29078563 Ry
     hartree contribution      =     326.17480717 Ry
     xc contribution           =     -51.40711553 Ry
     ewald contribution        =       5.05284562 Ry
     smearing contrib. (-TS)   =      -0.00162462 Ry

     convergence has been achieved in  12 iterations

     Forces acting on atoms (Ry/au):

     atom    1 type  1   force =     0.00780771   -0.00457894    0.00421271
     atom    2 type  1   force =    -0.01558128    0.00770626   -0.00595465
     atom    3 type  1   force =    -0.01767660    0.00167404   -0.00830462
     atom    4 type  1   force =     0.01116756   -0.00892690    0.00044198
     atom    5 type  1   force =     0.01428261    0.00412554    0.00960458

     Total force =     0.036598     Total SCF correction =     0.000205

     BFGS Geometry Optimization

     number of scf cycles    =   1
     number of bfgs steps    =   0

     energy   new            =    -329.4718730054 Ry

     new trust radius        =       0.0196018172 bohr
     new conv_thr            =       0.0000000100 Ry

ATOMIC_POSITIONS (bohr)
Au      -2.192188293   2.943443059  -0.518625289
Au      -0.059228279   2.375608258   4.217949352
Au       2.827614404   2.041739040  -0.058412623
Au       4.452754556   4.262334105   5.553117976
Au       7.046426612   1.060670537   2.401240584

     Writing output data file pwscf.save
     Check: negative starting charge=   -0.006245
     NEW-OLD atomic charge density approx. for the potential
     Check: negative starting charge=   -0.006247

[...]

     energy   old            =    -329.4718730054 Ry
     energy   new            =    -329.4730198656 Ry

     CASE: energy  _new < energy  _old

[...]

     iteration #  1     ecut=    30.00 Ry     beta=0.70
     Davidson diagonalization with overlap
     c_bands:  1 eigenvalues not converged
     ethr =  1.00E-06,  avg # of iterations = 20.0

[...]

     iteration #  1     ecut=    30.00 Ry     beta=0.70
     Davidson diagonalization with overlap
     c_bands:  1 eigenvalues not converged
     ethr =  1.00E-06,  avg # of iterations = 20.0

[...]

     Self-consistent Calculation

[...]

     Threshold (ethr) on eigenvalues was too large:
     Diagonalizing with lowered threshold

     Davidson diagonalization with overlap
     ethr =  8.36E-08,  avg # of iterations =  1.0

[...]

     total energy              =    -329.49211188 Ry
     Harris-Foulkes estimate   =    -329.49211187 Ry
     estimated scf accuracy    <          3.0E-10 Ry

     iteration # 10     ecut=    30.00 Ry     beta=0.70
     Davidson diagonalization with overlap
     ethr =  5.54E-13,  avg # of iterations =  2.0

     End of self-consistent calculation

          k = 0.0000 0.0000 0.0000 ( 22119 PWs)   bands (ev):

    -8.5237  -7.7921  -7.6676  -7.2372  -6.8532  -6.8228  -6.6152  -6.4907
    -6.3120  -6.0818  -5.9535  -5.7757  -5.7314  -5.6866  -5.4615  -5.3574
    -5.3154  -5.2461  -5.1995  -5.1764  -5.1727  -5.1222  -5.0018  -4.9227
    -4.8299  -4.7390  -4.4783  -3.7808  -2.4698  -2.1856  -0.5534  -0.2054
     0.5225   0.8335

     the Fermi energy is    -3.7485 ev

!    total energy              =    -329.49211187 Ry
     Harris-Foulkes estimate   =    -329.49211188 Ry
     estimated scf accuracy    <          2.3E-11 Ry

     The total energy is the sum of the following terms:

     one-electron contribution =    -608.85776649 Ry
     hartree contribution      =     325.85732706 Ry
     xc contribution           =     -51.40267811 Ry
     ewald contribution        =       4.91528691 Ry
     smearing contrib. (-TS)   =      -0.00428123 Ry

     convergence has been achieved in  10 iterations

     Forces acting on atoms (Ry/au):

     atom    1 type  1   force =    -0.00168296   -0.00000385    0.00016654
     atom    2 type  1   force =     0.00031198    0.00023152   -0.00119026
     atom    3 type  1   force =     0.00033862    0.00035292    0.00092629
     atom    4 type  1   force =     0.00083395   -0.00002359   -0.00010236
     atom    5 type  1   force =     0.00019840   -0.00055700    0.00019979

     Total force =     0.002573     Total SCF correction =     0.000017

     number of scf cycles    =  50
     number of bfgs steps    =  49

     energy   old            =    -329.4920988943 Ry
     energy   new            =    -329.4921118668 Ry

     CASE: energy  _new < energy  _old

     new trust radius        =       0.0254734924 bohr
     new conv_thr            =            1.0E-10 Ry

ATOMIC_POSITIONS (bohr)
Au      -1.891346925   2.612012337  -0.859785086
Au      -0.669878694   3.918281922   3.984865964
Au       2.901773448   1.845723322   0.506961334
Au       4.183055717   3.192276801   5.630101340
Au       7.551775455   1.115500619   2.333126448

     Writing output data file pwscf.save
     Check: negative starting charge=   -0.006429
     NEW-OLD atomic charge density approx. for the potential
     Check: negative starting charge=   -0.006434

     negative rho (up, down):  1.092E-04 0.000E+00

     Writing output data file pwscf.save

     General routines

     Parallel routines

   This run was terminated on:  21:51: 7   3Aug2017

   JOB DONE.