     Program PWSCF v.6.0 (svn rev. 13079) starts on  4Aug2017 at  3: 8: 0

     Current dimensions of program PWSCF are:
     Max number of different atomic species (ntypx) = 10
     Max number of k-points (npk) =  40000
     Max angular momentum in pseudopotentials (lmaxx) =  3
     Message from routine iosys:
     pot_extrapolation='second-order' not available, using 'atomic'
     Message from routine iosys:
     wfc_extrapolation='second-order' not available, using 'atomic'

     Subspace diagonalization in iterative solution of the eigenvalue problem:
     a serial algorithm will be used

     bravais-lattice index     =            1
     lattice parameter (alat)  =      20.0000  a.u.
     unit-cell volume          =    8000.0000 (a.u.)^3
     number of atoms/cell      =            5
     number of atomic types    =            1
     number of electrons       =        55.00
     number of Kohn-Sham states=           34
     kinetic-energy cutoff     =      30.0000  Ry
     charge density cutoff     =     120.0000  Ry
     convergence threshold     =      1.0E-08
     mixing beta               =       0.7000
     number of iterations used =            8  plain     mixing
     Exchange-correlation      = BLYP ( 1  3  1  3 0 0)
     nstep                     =           50

     celldm(1)=  20.000000  celldm(2)=   0.000000  celldm(3)=   0.000000
     celldm(4)=   0.000000  celldm(5)=   0.000000  celldm(6)=   0.000000

     crystal axes: (cart. coord. in units of alat)
               a(1) = (   1.000000   0.000000   0.000000 )
               a(2) = (   0.000000   1.000000   0.000000 )
               a(3) = (   0.000000   0.000000   1.000000 )

     reciprocal axes: (cart. coord. in units 2 pi/alat)
               b(1) = (  1.000000  0.000000  0.000000 )
               b(2) = (  0.000000  1.000000  0.000000 )
               b(3) = (  0.000000  0.000000  1.000000 )

     PseudoPot. # 1 for Au read from file:
     ./Au.blyp-d-hgh.UPF
     MD5 check sum: c10d8bae01f806c36a1643a1c69a8479
     Pseudo is Norm-conserving, Zval = 11.0
     Generated in analytical, separable form
     Using radial grid of 1279 points,  6 beta functions with:
                l(1) =   0
                l(2) =   0
                l(3) =   1
                l(4) =   1
                l(5) =   2
                l(6) =   2

     atomic species   valence    mass     pseudopotential
        Au            11.00    28.08600     Au( 1.00)

     No symmetry found

   Cartesian axes

     site n.     atom                  positions (alat units)
         1           Au  tau(   1) = (  -0.0911522   0.1616625  -0.0402465  )
         2           Au  tau(   2) = (  -0.0014314   0.1619359   0.2007068  )
         3           Au  tau(   3) = (   0.1410568   0.1121624  -0.0031605  )
         4           Au  tau(   4) = (   0.2238406   0.2198321   0.3009535  )
         5           Au  tau(   5) = (   0.3315923   0.0473509   0.1355946  )

     number of k points=     1  Marzari-Vanderbilt smearing, width (Ry)=  0.0250
                       cart. coord. in units 2pi/alat
        k(    1) = (   0.0000000   0.0000000   0.0000000), wk =   2.0000000

     Initial potential from superposition of free atoms
     Check: negative starting charge=   -0.006242

     starting charge   54.99940, renormalised to   55.00000

     negative rho (up, down):  6.242E-03 0.000E+00
     Starting wfc are   45 randomized atomic wfcs

     Self-consistent Calculation

     iteration #  1     ecut=    30.00 Ry     beta=0.70
     Davidson diagonalization with overlap
     ethr =  1.00E-02,  avg # of iterations =  3.0

     Threshold (ethr) on eigenvalues was too large:
     Diagonalizing with lowered threshold

     Davidson diagonalization with overlap
     ethr =  4.12E-04,  avg # of iterations =  7.0

     negative rho (up, down):  8.328E-04 0.000E+00

     total energy              =    -329.35759365 Ry
     Harris-Foulkes estimate   =    -329.52534102 Ry
     estimated scf accuracy    <       0.28209655 Ry

[...]

     End of self-consistent calculation

          k = 0.0000 0.0000 0.0000 ( 22119 PWs)   bands (ev):

    -8.5556  -7.8598  -7.6789  -7.3265  -6.9342  -6.8664  -6.6009  -6.5436
    -6.2895  -6.0069  -5.9195  -5.7592  -5.7492  -5.5979  -5.5725  -5.4684
    -5.2136  -5.1868  -5.1776  -5.1190  -5.0947  -4.9356  -4.9128  -4.8615
    -4.7204  -4.5020  -4.2628  -3.7476  -2.3823  -2.1035  -0.3986  -0.2013
     0.4182   0.6400

     the Fermi energy is    -3.7534 ev

!    total energy              =    -329.46749309 Ry
     Harris-Foulkes estimate   =    -329.46749316 Ry
     estimated scf accuracy    <          2.7E-09 Ry

     The total energy is the sum of the following terms:

     one-electron contribution =    -615.09241529 Ry
     hartree contribution      =     329.08099821 Ry
     xc contribution           =     -51.47006602 Ry
     ewald contribution        =       8.01031355 Ry
     smearing contrib. (-TS)   =       0.00367646 Ry

     convergence has been achieved in  12 iterations

     Forces acting on atoms (Ry/au):

     atom    1 type  1   force =    -0.05367478    0.00968669   -0.01371672
     atom    2 type  1   force =    -0.01191699    0.00959992    0.00901563
     atom    3 type  1   force =     0.03170326   -0.00863329   -0.01768154
     atom    4 type  1   force =     0.00836642   -0.01042646   -0.00111995
     atom    5 type  1   force =     0.02552208   -0.00022686    0.02350258

     Total force =     0.079085     Total SCF correction =     0.000245

     BFGS Geometry Optimization

     number of scf cycles    =   1
     number of bfgs steps    =   0

     energy   new            =    -329.4674930934 Ry

     new trust radius        =       0.0562402230 bohr
     new conv_thr            =       0.0000000100 Ry

ATOMIC_POSITIONS (bohr)
Au      -1.876718783   3.242936688  -0.818647722
Au      -0.040543986   3.248317922   4.023152627
Au       2.852839265   2.234614708  -0.080891539
Au       4.485178421   4.386215539   6.017950049
Au       6.657367083   0.946791143   2.735395585

     Writing output data file pwscf.save
     Check: negative starting charge=   -0.006242
     NEW-OLD atomic charge density approx. for the potential
     Check: negative starting charge=   -0.006199

[...]

     energy   old            =    -329.4674930934 Ry
     energy   new            =    -329.4725895646 Ry

     CASE: energy  _new < energy  _old

[...]

     WARNING: bfgs curvature condition failed, Theta= 0.863
     new trust radius        =       0.1055880342 bohr
     new conv_thr            =       0.0000000007 Ry

[...]

     WARNING: bfgs curvature condition failed, Theta= 0.606
     uphill step: resetting bfgs history

[...]

     WARNING: bfgs curvature condition failed, Theta= 0.929
     new trust radius        =       0.0724165642 bohr
     new conv_thr            =       0.0000000004 Ry

[...]

     Self-consistent Calculation

[...]

     Threshold (ethr) on eigenvalues was too large:
     Diagonalizing with lowered threshold

     Davidson diagonalization with overlap
     ethr =  2.03E-08,  avg # of iterations =  2.0

[...]

     total energy              =    -329.49327548 Ry
     Harris-Foulkes estimate   =    -329.49327548 Ry
     estimated scf accuracy    <          1.2E-10 Ry

     iteration # 10     ecut=    30.00 Ry     beta=0.70
     Davidson diagonalization with overlap
     ethr =  2.16E-13,  avg # of iterations =  2.0

     End of self-consistent calculation

          k = 0.0000 0.0000 0.0000 ( 22119 PWs)   bands (ev):

    -8.5039  -7.7683  -7.6427  -7.2123  -6.8406  -6.8132  -6.5913  -6.4707
    -6.2948  -6.0767  -5.9459  -5.7684  -5.7254  -5.6784  -5.4493  -5.3569
    -5.3103  -5.2477  -5.1966  -5.1754  -5.1681  -5.1218  -4.9933  -4.9235
    -4.8472  -4.7261  -4.4871  -3.7774  -2.4228  -2.2059  -0.5263  -0.2026
     0.4689   0.7498

     the Fermi energy is    -3.7438 ev

!    total energy              =    -329.49327547 Ry
     Harris-Foulkes estimate   =    -329.49327548 Ry
     estimated scf accuracy    <          3.4E-12 Ry

     The total energy is the sum of the following terms:

     one-electron contribution =    -605.34987421 Ry
     hartree contribution      =     324.11593994 Ry
     xc contribution           =     -51.39613883 Ry
     ewald contribution        =       3.14136823 Ry
     smearing contrib. (-TS)   =      -0.00457060 Ry

     convergence has been achieved in  10 iterations

     Forces acting on atoms (Ry/au):

     atom    1 type  1   force =     0.00089676    0.00000779   -0.00001892
     atom    2 type  1   force =     0.00024517    0.00001439   -0.00002804
     atom    3 type  1   force =     0.00012175   -0.00038290    0.00018773
     atom    4 type  1   force =     0.00007475    0.00002645   -0.00115332
     atom    5 type  1   force =    -0.00133843    0.00033427    0.00101254

     Total force =     0.002308     Total SCF correction =     0.000008

     number of scf cycles    =  50
     number of bfgs steps    =  49

     energy   old            =    -329.4932588271 Ry
     energy   new            =    -329.4932754693 Ry

     CASE: energy  _new < energy  _old

     new trust radius        =       0.0067811454 bohr
     new conv_thr            =            1.0E-10 Ry

ATOMIC_POSITIONS (bohr)
Au      -1.713565526   3.384996912  -1.004608302
Au      -0.539196333   4.572487570   3.893981136
Au       2.853725669   1.982184312   0.612997544
Au       4.116626471   3.280733554   5.788479173
Au       7.360531719   0.838473651   2.586109448

     Writing output data file pwscf.save
     Check: negative starting charge=   -0.006338
     NEW-OLD atomic charge density approx. for the potential
     Check: negative starting charge=   -0.006337

     negative rho (up, down):  8.652E-07 0.000E+00

     Writing output data file pwscf.save

     General routines

     Parallel routines

   This run was terminated on:   3:10:13   4Aug2017

   JOB DONE.