     Program PWSCF v.6.0 (svn rev. 13079) starts on  4Aug2017 at  1:38:44

     Current dimensions of program PWSCF are:
     Max number of different atomic species (ntypx) = 10
     Max number of k-points (npk) =  40000
     Max angular momentum in pseudopotentials (lmaxx) =  3
     Message from routine iosys:
     pot_extrapolation='second-order' not available, using 'atomic'
     Message from routine iosys:
     wfc_extrapolation='second-order' not available, using 'atomic'

     Subspace diagonalization in iterative solution of the eigenvalue problem:
     a serial algorithm will be used

     bravais-lattice index     =            1
     lattice parameter (alat)  =      20.0000  a.u.
     unit-cell volume          =    8000.0000 (a.u.)^3
     number of atoms/cell      =            5
     number of atomic types    =            1
     number of electrons       =        55.00
     number of Kohn-Sham states=           34
     kinetic-energy cutoff     =      30.0000  Ry
     charge density cutoff     =     120.0000  Ry
     convergence threshold     =      1.0E-08
     mixing beta               =       0.7000
     number of iterations used =            8  plain     mixing
     Exchange-correlation      = BLYP ( 1  3  1  3 0 0)
     nstep                     =           50

     celldm(1)=  20.000000  celldm(2)=   0.000000  celldm(3)=   0.000000
     celldm(4)=   0.000000  celldm(5)=   0.000000  celldm(6)=   0.000000

     crystal axes: (cart. coord. in units of alat)
               a(1) = (   1.000000   0.000000   0.000000 )
               a(2) = (   0.000000   1.000000   0.000000 )
               a(3) = (   0.000000   0.000000   1.000000 )

     reciprocal axes: (cart. coord. in units 2 pi/alat)
               b(1) = (  1.000000  0.000000  0.000000 )
               b(2) = (  0.000000  1.000000  0.000000 )
               b(3) = (  0.000000  0.000000  1.000000 )

     PseudoPot. # 1 for Au read from file:
     ./Au.blyp-d-hgh.UPF
     MD5 check sum: c10d8bae01f806c36a1643a1c69a8479
     Pseudo is Norm-conserving, Zval = 11.0
     Generated in analytical, separable form
     Using radial grid of 1279 points,  6 beta functions with:
                l(1) =   0
                l(2) =   0
                l(3) =   1
                l(4) =   1
                l(5) =   2
                l(6) =   2

     atomic species   valence    mass     pseudopotential
        Au            11.00    28.08600     Au( 1.00)

     No symmetry found

   Cartesian axes

     site n.     atom                  positions (alat units)
         1           Au  tau(   1) = (  -0.1048450   0.1000164  -0.0045194  )
         2           Au  tau(   2) = (   0.0162515   0.1561521   0.1920119  )
         3           Au  tau(   3) = (   0.1458786   0.1490853  -0.0136849  )
         4           Au  tau(   4) = (   0.2212121   0.2353324   0.2920404  )
         5           Au  tau(   5) = (   0.3163562   0.0414515   0.1534326  )

     number of k points=     1  Marzari-Vanderbilt smearing, width (Ry)=  0.0250
                       cart. coord. in units 2pi/alat
        k(    1) = (   0.0000000   0.0000000   0.0000000), wk =   2.0000000

     Initial potential from superposition of free atoms
     Check: negative starting charge=   -0.006448

     starting charge   54.99940, renormalised to   55.00000

     negative rho (up, down):  6.448E-03 0.000E+00
     Starting wfc are   45 randomized atomic wfcs

     Self-consistent Calculation

     iteration #  1     ecut=    30.00 Ry     beta=0.70
     Davidson diagonalization with overlap
     ethr =  1.00E-02,  avg # of iterations =  3.0

     Threshold (ethr) on eigenvalues was too large:
     Diagonalizing with lowered threshold

     Davidson diagonalization with overlap
     ethr =  3.84E-04,  avg # of iterations =  8.0

     negative rho (up, down):  8.518E-04 0.000E+00

     total energy              =    -329.34093080 Ry
     Harris-Foulkes estimate   =    -329.49598822 Ry
     estimated scf accuracy    <       0.26241917 Ry

[...]

     End of self-consistent calculation

          k = 0.0000 0.0000 0.0000 ( 22119 PWs)   bands (ev):

    -8.7765  -8.1395  -7.9653  -7.2607  -7.0847  -7.0558  -6.8633  -6.6430
    -6.3590  -6.0325  -5.9133  -5.8556  -5.7260  -5.6424  -5.6000  -5.5092
    -5.2823  -5.2014  -5.1598  -5.0909  -5.0623  -5.0382  -4.9563  -4.8151
    -4.7490  -4.4857  -4.2573  -3.5257  -2.6018  -2.0564  -0.3210  -0.0489
     0.3180   0.5854

     the Fermi energy is    -3.4895 ev

!    total energy              =    -329.43924039 Ry
     Harris-Foulkes estimate   =    -329.43924044 Ry
     estimated scf accuracy    <          1.6E-09 Ry

     The total energy is the sum of the following terms:

     one-electron contribution =    -629.38944079 Ry
     hartree contribution      =     336.12381233 Ry
     xc contribution           =     -51.48964288 Ry
     ewald contribution        =      15.32126039 Ry
     smearing contrib. (-TS)   =      -0.00522943 Ry

     convergence has been achieved in  12 iterations

     Forces acting on atoms (Ry/au):

     atom    1 type  1   force =    -0.04670711   -0.01512824   -0.05619854
     atom    2 type  1   force =    -0.03152164    0.00784234    0.07810287
     atom    3 type  1   force =     0.03986374   -0.01390513   -0.04182081
     atom    4 type  1   force =     0.03704487    0.01224136    0.02893765
     atom    5 type  1   force =     0.00132013    0.00894967   -0.00902117

     Total force =     0.137033     Total SCF correction =     0.000156

     BFGS Geometry Optimization

     number of scf cycles    =   1
     number of bfgs steps    =   0

     energy   new            =    -329.4392403875 Ry

     new trust radius        =       0.0845882640 bohr
     new conv_thr            =       0.0000000100 Ry

ATOMIC_POSITIONS (bohr)
Au      -2.143606106   1.985199762  -0.146587539
Au       0.293508362   3.130885337   3.918340871
Au       2.957435740   2.967799868  -0.315518813
Au       4.461285870   4.718889360   5.869744646
Au       6.328444135   0.837978673   3.059629835

     Writing output data file pwscf.save
     Check: negative starting charge=   -0.006448
     NEW-OLD atomic charge density approx. for the potential
     Check: negative starting charge=   -0.006312

[...]

     energy   old            =    -329.4392403875 Ry
     energy   new            =    -329.4534000237 Ry

     CASE: energy  _new < energy  _old

[...]

     WARNING: bfgs curvature condition failed, Theta= 0.633
     new trust radius        =       0.0706111007 bohr
     new conv_thr            =       0.0000000002 Ry

[...]

     WARNING: info=  6 for Hessian
     new trust radius        =       0.0630689146 bohr
     new conv_thr            =            1.0E-10 Ry

[...]

     WARNING: info=  6 for Hessian
     uphill step: resetting bfgs history

[...]

     WARNING: bfgs curvature condition failed, Theta= 0.378
     new trust radius        =       0.0608776059 bohr
     new conv_thr            =       0.0000000003 Ry

[...]

     iteration #  1     ecut=    30.00 Ry     beta=0.70
     Davidson diagonalization with overlap
     c_bands:  1 eigenvalues not converged
     ethr =  1.00E-06,  avg # of iterations = 20.0

[...]

     Self-consistent Calculation

[...]

     Threshold (ethr) on eigenvalues was too large:
     Diagonalizing with lowered threshold

     Davidson diagonalization with overlap
     ethr =  6.87E-08,  avg # of iterations =  1.0

[...]

     total energy              =    -329.49313746 Ry
     Harris-Foulkes estimate   =    -329.49313747 Ry
     estimated scf accuracy    <          2.8E-10 Ry

     iteration # 10     ecut=    30.00 Ry     beta=0.70
     Davidson diagonalization with overlap
     ethr =  5.04E-13,  avg # of iterations =  2.0

     End of self-consistent calculation

          k = 0.0000 0.0000 0.0000 ( 22119 PWs)   bands (ev):

    -8.4998  -7.7773  -7.6574  -7.2419  -6.8715  -6.8081  -6.6214  -6.4749
    -6.3192  -6.0659  -5.9626  -5.7670  -5.7251  -5.6809  -5.4462  -5.3596
    -5.3137  -5.2416  -5.1970  -5.1809  -5.1703  -5.1225  -4.9942  -4.9169
    -4.8439  -4.7315  -4.4738  -3.7567  -2.4003  -2.2348  -0.5327  -0.2014
     0.4134   0.7819

     the Fermi energy is    -3.7219 ev

!    total energy              =    -329.49313747 Ry
     Harris-Foulkes estimate   =    -329.49313746 Ry
     estimated scf accuracy    <          2.0E-11 Ry

     The total energy is the sum of the following terms:

     one-electron contribution =    -606.17843316 Ry
     hartree contribution      =     324.52485415 Ry
     xc contribution           =     -51.40060172 Ry
     ewald contribution        =       3.56592169 Ry
     smearing contrib. (-TS)   =      -0.00487843 Ry

     convergence has been achieved in  10 iterations

     Forces acting on atoms (Ry/au):

     atom    1 type  1   force =     0.00051995    0.00010385   -0.00109217
     atom    2 type  1   force =    -0.00059356    0.00009997   -0.00006094
     atom    3 type  1   force =    -0.00038847    0.00064400   -0.00060549
     atom    4 type  1   force =     0.00002689    0.00105622    0.00174338
     atom    5 type  1   force =     0.00043518   -0.00190405    0.00001521

     Total force =     0.003278     Total SCF correction =     0.000020

     number of scf cycles    =  50
     number of bfgs steps    =  49

     energy   old            =    -329.4930992036 Ry
     energy   new            =    -329.4931374710 Ry

     CASE: energy  _new < energy  _old

     new trust radius        =       0.0081570988 bohr
     new conv_thr            =            1.0E-10 Ry

ATOMIC_POSITIONS (bohr)
Au      -2.047941846   2.476319248  -0.523295898
Au       0.836891646   3.584841678   3.470226881
Au       2.894134740   1.031339608  -0.840922145
Au       4.111160231   4.400097580   7.230210733
Au       6.102823229   2.148154887   3.049389430

     Writing output data file pwscf.save
     Check: negative starting charge=   -0.006354
     NEW-OLD atomic charge density approx. for the potential
     Check: negative starting charge=   -0.006346

     negative rho (up, down):  4.391E-06 0.000E+00

     Writing output data file pwscf.save

     General routines

     Parallel routines

   This run was terminated on:   1:40:59   4Aug2017

   JOB DONE.