     Program PWSCF v.6.0 (svn rev. 13079) starts on  3Aug2017 at 21:42:46

     Current dimensions of program PWSCF are:
     Max number of different atomic species (ntypx) = 10
     Max number of k-points (npk) =  40000
     Max angular momentum in pseudopotentials (lmaxx) =  3
     Message from routine iosys:
     pot_extrapolation='second-order' not available, using 'atomic'
     Message from routine iosys:
     wfc_extrapolation='second-order' not available, using 'atomic'

     Subspace diagonalization in iterative solution of the eigenvalue problem:
     a serial algorithm will be used

     bravais-lattice index     =            1
     lattice parameter (alat)  =      20.0000  a.u.
     unit-cell volume          =    8000.0000 (a.u.)^3
     number of atoms/cell      =            5
     number of atomic types    =            1
     number of electrons       =        55.00
     number of Kohn-Sham states=           34
     kinetic-energy cutoff     =      30.0000  Ry
     charge density cutoff     =     120.0000  Ry
     convergence threshold     =      1.0E-08
     mixing beta               =       0.7000
     number of iterations used =            8  plain     mixing
     Exchange-correlation      = BLYP ( 1  3  1  3 0 0)
     nstep                     =           50

     celldm(1)=  20.000000  celldm(2)=   0.000000  celldm(3)=   0.000000
     celldm(4)=   0.000000  celldm(5)=   0.000000  celldm(6)=   0.000000

     crystal axes: (cart. coord. in units of alat)
               a(1) = (   1.000000   0.000000   0.000000 )
               a(2) = (   0.000000   1.000000   0.000000 )
               a(3) = (   0.000000   0.000000   1.000000 )

     reciprocal axes: (cart. coord. in units 2 pi/alat)
               b(1) = (  1.000000  0.000000  0.000000 )
               b(2) = (  0.000000  1.000000  0.000000 )
               b(3) = (  0.000000  0.000000  1.000000 )

     PseudoPot. # 1 for Au read from file:
     ./Au.blyp-d-hgh.UPF
     MD5 check sum: c10d8bae01f806c36a1643a1c69a8479
     Pseudo is Norm-conserving, Zval = 11.0
     Generated in analytical, separable form
     Using radial grid of 1279 points,  6 beta functions with:
                l(1) =   0
                l(2) =   0
                l(3) =   1
                l(4) =   1
                l(5) =   2
                l(6) =   2

     atomic species   valence    mass     pseudopotential
        Au            11.00    28.08600     Au( 1.00)

     No symmetry found

   Cartesian axes

     site n.     atom                  positions (alat units)
         1           Au  tau(   1) = (  -0.1110078   0.0544632  -0.0198670  )
         2           Au  tau(   2) = (  -0.0387166   0.1138722   0.2142323  )
         3           Au  tau(   3) = (   0.1465859   0.0424419   0.0126170  )
         4           Au  tau(   4) = (   0.2055642   0.1627947   0.2754750  )
         5           Au  tau(   5) = (   0.3945531   0.0891744   0.1197016  )

     number of k points=     1  Marzari-Vanderbilt smearing, width (Ry)=  0.0250
                       cart. coord. in units 2pi/alat
        k(    1) = (   0.0000000   0.0000000   0.0000000), wk =   2.0000000

     Initial potential from superposition of free atoms
     Check: negative starting charge=   -0.006438

     starting charge   54.99940, renormalised to   55.00000

     negative rho (up, down):  6.438E-03 0.000E+00
     Starting wfc are   45 randomized atomic wfcs

     Self-consistent Calculation

     iteration #  1     ecut=    30.00 Ry     beta=0.70
     Davidson diagonalization with overlap
     ethr =  1.00E-02,  avg # of iterations =  3.0

     Threshold (ethr) on eigenvalues was too large:
     Diagonalizing with lowered threshold

     Davidson diagonalization with overlap
     ethr =  3.84E-04,  avg # of iterations =  5.0

     negative rho (up, down):  8.843E-04 0.000E+00

     total energy              =    -329.36554106 Ry
     Harris-Foulkes estimate   =    -329.52668332 Ry
     estimated scf accuracy    <       0.26883011 Ry

[...]

     End of self-consistent calculation

          k = 0.0000 0.0000 0.0000 ( 22119 PWs)   bands (ev):

    -8.0420  -7.4978  -7.4658  -7.0759  -6.8195  -6.6836  -6.5445  -6.3429
    -6.2057  -6.0178  -5.8021  -5.6700  -5.6377  -5.5758  -5.4361  -5.4152
    -5.3411  -5.2132  -5.1840  -5.1798  -5.1378  -5.1166  -5.0880  -4.9144
    -4.8221  -4.7662  -4.4014  -3.8092  -2.8211  -2.1284  -0.5167  -0.2281
     0.4215   0.8847

     the Fermi energy is    -3.7924 ev

!    total energy              =    -329.47393897 Ry
     Harris-Foulkes estimate   =    -329.47393901 Ry
     estimated scf accuracy    <          9.9E-09 Ry

     The total energy is the sum of the following terms:

     one-electron contribution =    -594.86362186 Ry
     hartree contribution      =     318.98782274 Ry
     xc contribution           =     -51.36404798 Ry
     ewald contribution        =      -2.23295890 Ry
     smearing contrib. (-TS)   =      -0.00113297 Ry

     convergence has been achieved in  12 iterations

     Forces acting on atoms (Ry/au):

     atom    1 type  1   force =     0.01251874   -0.00487468   -0.00918501
     atom    2 type  1   force =     0.00565902   -0.00106411   -0.00187399
     atom    3 type  1   force =     0.00700760    0.01571075    0.03056854
     atom    4 type  1   force =     0.00583947   -0.00424020   -0.00946671
     atom    5 type  1   force =    -0.03102483   -0.00553175   -0.01004284

     Total force =     0.052608     Total SCF correction =     0.000335

     BFGS Geometry Optimization

     number of scf cycles    =   1
     number of bfgs steps    =   0

     energy   new            =    -329.4739389745 Ry

     new trust radius        =       0.0350766290 bohr
     new conv_thr            =       0.0000000100 Ry

ATOMIC_POSITIONS (bohr)
Au      -2.207636262   1.084388316  -0.406525006
Au      -0.768672976   2.276379894   4.282771014
Au       2.938725601   0.864549747   0.282909543
Au       4.117122468   3.251653796   5.500033292
Au       7.860037169   1.777956246   2.383990156

     Writing output data file pwscf.save
     Check: negative starting charge=   -0.006438
     NEW-OLD atomic charge density approx. for the potential
     Check: negative starting charge=   -0.006447

[...]

     energy   old            =    -329.4739389744 Ry
     energy   new            =    -329.4765546035 Ry

     CASE: energy  _new < energy  _old

     WARNING: bfgs curvature condition failed, Theta= 0.899
     new trust radius        =       0.0385842919 bohr
     new conv_thr            =       0.0000000026 Ry

[...]

     WARNING: bfgs curvature condition failed, Theta= 0.562
     new trust radius        =       0.0306771901 bohr
     new conv_thr            =            1.0E-10 Ry

[...]

     WARNING: info=  7 for Hessian
     uphill step: resetting bfgs history

[...]

     number of scf cycles    =  33
     number of bfgs steps    =  32

     energy   old            =    -329.4910471691 Ry
     energy   new            =    -329.4910599949 Ry

     CASE: energy  _new < energy  _old

     new trust radius        =       0.0066169627 bohr
     new conv_thr            =            1.0E-10 Ry

ATOMIC_POSITIONS (bohr)
Au      -1.918402333   0.796385224  -0.611465736
Au      -0.874240755   2.450292321   4.168618651
Au       2.970850067   1.231993122   0.588321351
Au       4.055013757   3.052245564   5.633702186
Au       7.706355263   1.724011769   2.264002548

     Writing output data file pwscf.save
     Check: negative starting charge=   -0.006538
     NEW-OLD atomic charge density approx. for the potential
     Check: negative starting charge=   -0.006543

     negative rho (up, down):  6.814E-07 0.000E+00

     Self-consistent Calculation

[...]

     Threshold (ethr) on eigenvalues was too large:
     Diagonalizing with lowered threshold

     Davidson diagonalization with overlap
     ethr =  1.47E-08,  avg # of iterations =  1.0

[...]

     total energy              =    -329.49106701 Ry
     Harris-Foulkes estimate   =    -329.49106702 Ry
     estimated scf accuracy    <          1.9E-10 Ry

     iteration #  9     ecut=    30.00 Ry     beta=0.70
     Davidson diagonalization with overlap
     ethr =  3.44E-13,  avg # of iterations =  2.0

     End of self-consistent calculation

          k = 0.0000 0.0000 0.0000 ( 22119 PWs)   bands (ev):

    -8.5173  -7.7924  -7.6579  -7.2425  -6.8625  -6.8181  -6.6258  -6.4869
    -6.3104  -6.0755  -5.9661  -5.7758  -5.7379  -5.6879  -5.4641  -5.3657
    -5.3170  -5.2451  -5.2020  -5.1887  -5.1728  -5.1245  -5.0033  -4.9214
    -4.8424  -4.7386  -4.4734  -3.7822  -2.5185  -2.1919  -0.5785  -0.2005
     0.5036   0.9317

     the Fermi energy is    -3.7507 ev

!    total energy              =    -329.49106699 Ry
     Harris-Foulkes estimate   =    -329.49106701 Ry
     estimated scf accuracy    <          2.0E-11 Ry

     The total energy is the sum of the following terms:

     one-electron contribution =    -610.31501676 Ry
     hartree contribution      =     326.58329549 Ry
     xc contribution           =     -51.40427425 Ry
     ewald contribution        =       5.64905379 Ry
     smearing contrib. (-TS)   =      -0.00412526 Ry

     convergence has been achieved in   9 iterations

     Forces acting on atoms (Ry/au):

     atom    1 type  1   force =    -0.00049077   -0.00021264   -0.00038920
     atom    2 type  1   force =    -0.00086084    0.00062218    0.00058265
     atom    3 type  1   force =     0.00096196   -0.00091259    0.00017611
     atom    4 type  1   force =    -0.00003785    0.00052304   -0.00030028
     atom    5 type  1   force =     0.00042750   -0.00001998   -0.00006928

     Total force =     0.002061     Total SCF correction =     0.000019

     bfgs converged in  34 scf cycles and  33 bfgs steps
     (criteria: energy <  1.0E-04, force <  1.0E-03)

     End of BFGS Geometry Optimization

     Final energy   =    -329.4910669945 Ry
Begin final coordinates

ATOMIC_POSITIONS (bohr)
Au      -1.918402333   0.796385224  -0.611465736
Au      -0.874240755   2.450292321   4.168618651
Au       2.970850067   1.231993122   0.588321351
Au       4.055013757   3.052245564   5.633702186
Au       7.706355263   1.724011769   2.264002548
End final coordinates

     Writing output data file pwscf.save

     General routines

     Parallel routines

   This run was terminated on:  21:44:13   3Aug2017

   JOB DONE.