     Program PWSCF v.6.0 (svn rev. 13079) starts on  3Aug2017 at 10: 7:24

     Current dimensions of program PWSCF are:
     Max number of different atomic species (ntypx) = 10
     Max number of k-points (npk) =  40000
     Max angular momentum in pseudopotentials (lmaxx) =  3
     Message from routine iosys:
     pot_extrapolation='second-order' not available, using 'atomic'
     Message from routine iosys:
     wfc_extrapolation='second-order' not available, using 'atomic'

     Subspace diagonalization in iterative solution of the eigenvalue problem:
     a serial algorithm will be used

     bravais-lattice index     =            1
     lattice parameter (alat)  =      20.0000  a.u.
     unit-cell volume          =    8000.0000 (a.u.)^3
     number of atoms/cell      =            5
     number of atomic types    =            1
     number of electrons       =        55.00
     number of Kohn-Sham states=           34
     kinetic-energy cutoff     =      30.0000  Ry
     charge density cutoff     =     120.0000  Ry
     convergence threshold     =      1.0E-08
     mixing beta               =       0.7000
     number of iterations used =            8  plain     mixing
     Exchange-correlation      = BLYP ( 1  3  1  3 0 0)
     nstep                     =           50

     celldm(1)=  20.000000  celldm(2)=   0.000000  celldm(3)=   0.000000
     celldm(4)=   0.000000  celldm(5)=   0.000000  celldm(6)=   0.000000

     crystal axes: (cart. coord. in units of alat)
               a(1) = (   1.000000   0.000000   0.000000 )
               a(2) = (   0.000000   1.000000   0.000000 )
               a(3) = (   0.000000   0.000000   1.000000 )

     reciprocal axes: (cart. coord. in units 2 pi/alat)
               b(1) = (  1.000000  0.000000  0.000000 )
               b(2) = (  0.000000  1.000000  0.000000 )
               b(3) = (  0.000000  0.000000  1.000000 )

     PseudoPot. # 1 for Au read from file:
     ./Au.blyp-d-hgh.UPF
     MD5 check sum: c10d8bae01f806c36a1643a1c69a8479
     Pseudo is Norm-conserving, Zval = 11.0
     Generated in analytical, separable form
     Using radial grid of 1279 points,  6 beta functions with:
                l(1) =   0
                l(2) =   0
                l(3) =   1
                l(4) =   1
                l(5) =   2
                l(6) =   2

     atomic species   valence    mass     pseudopotential
        Au            11.00    28.08600     Au( 1.00)

     No symmetry found

   Cartesian axes

     site n.     atom                  positions (alat units)
         1           Au  tau(   1) = (  -0.0749421   0.1294255  -0.0565934  )
         2           Au  tau(   2) = (  -0.0483808   0.1907008   0.1840277  )
         3           Au  tau(   3) = (   0.1572192   0.0836997   0.0283913  )
         4           Au  tau(   4) = (   0.1951512   0.1624449   0.2926922  )
         5           Au  tau(   5) = (   0.3754729   0.0674948   0.1535438  )

     number of k points=     1  Marzari-Vanderbilt smearing, width (Ry)=  0.0250
                       cart. coord. in units 2pi/alat
        k(    1) = (   0.0000000   0.0000000   0.0000000), wk =   2.0000000

     Initial potential from superposition of free atoms
     Check: negative starting charge=   -0.006390

     starting charge   54.99940, renormalised to   55.00000

     negative rho (up, down):  6.390E-03 0.000E+00
     Starting wfc are   45 randomized atomic wfcs

     Self-consistent Calculation

     iteration #  1     ecut=    30.00 Ry     beta=0.70
     Davidson diagonalization with overlap
     ethr =  1.00E-02,  avg # of iterations =  3.0

     Threshold (ethr) on eigenvalues was too large:
     Diagonalizing with lowered threshold

     Davidson diagonalization with overlap
     ethr =  4.17E-04,  avg # of iterations =  5.0

     negative rho (up, down):  8.833E-04 0.000E+00

     total energy              =    -329.37228785 Ry
     Harris-Foulkes estimate   =    -329.54654650 Ry
     estimated scf accuracy    <       0.28779182 Ry

[...]

     End of self-consistent calculation

          k = 0.0000 0.0000 0.0000 ( 22119 PWs)   bands (ev):

    -8.4911  -7.8702  -7.6236  -7.1536  -6.9113  -6.8694  -6.8227  -6.5380
    -6.2051  -6.1525  -6.0520  -5.7606  -5.7419  -5.6610  -5.4308  -5.3372
    -5.2907  -5.2597  -5.2205  -5.1604  -5.1496  -5.1417  -5.0088  -4.9148
    -4.9071  -4.6688  -4.4608  -3.6983  -2.4795  -2.2045  -0.5422  -0.1876
     0.4475   0.7839

     the Fermi energy is    -3.6594 ev

!    total energy              =    -329.48653280 Ry
     Harris-Foulkes estimate   =    -329.48653291 Ry
     estimated scf accuracy    <          8.1E-09 Ry

     The total energy is the sum of the following terms:

     one-electron contribution =    -608.50838318 Ry
     hartree contribution      =     325.67532370 Ry
     xc contribution           =     -51.41175424 Ry
     ewald contribution        =       4.76414199 Ry
     smearing contrib. (-TS)   =      -0.00586107 Ry

     convergence has been achieved in  11 iterations

     Forces acting on atoms (Ry/au):

     atom    1 type  1   force =    -0.00409432   -0.00571840   -0.01850363
     atom    2 type  1   force =     0.01610787    0.00384645    0.01819944
     atom    3 type  1   force =    -0.00231765    0.00342957    0.00678675
     atom    4 type  1   force =    -0.03007909    0.01038748    0.00677281
     atom    5 type  1   force =     0.02038318   -0.01194510   -0.01325537

     Total force =     0.053413     Total SCF correction =     0.000360

     BFGS Geometry Optimization

     number of scf cycles    =   1
     number of bfgs steps    =   0

     energy   new            =    -329.4865328027 Ry

     new trust radius        =       0.0325349389 bohr
     new conv_thr            =       0.0000000100 Ry

ATOMIC_POSITIONS (bohr)
Au      -1.502937321   2.582791599  -1.150370630
Au      -0.951508127   3.817861448   3.698752438
Au       3.142066355   1.677424572   0.574613753
Au       3.872945911   3.259284480   5.860617806
Au       7.529841183   1.337950900   3.057619633

     Writing output data file pwscf.save
     Check: negative starting charge=   -0.006390
     NEW-OLD atomic charge density approx. for the potential
     Check: negative starting charge=   -0.006371

[...]

     energy   old            =    -329.4865328027 Ry
     energy   new            =    -329.4889510954 Ry

     CASE: energy  _new < energy  _old

[...]

     number of scf cycles    =  21
     number of bfgs steps    =  20

     energy   old            =    -329.4929407180 Ry
     energy   new            =    -329.4929792847 Ry

     CASE: energy  _new < energy  _old

     new trust radius        =       0.0072103957 bohr
     new conv_thr            =            1.0E-10 Ry

ATOMIC_POSITIONS (bohr)
Au      -1.532591749   2.472137318  -1.240975090
Au      -0.788962325   3.997000657   3.639697533
Au       3.060208653   1.660738794   0.721204290
Au       3.835925973   3.369782789   5.884444845
Au       7.515827448   1.175653442   3.036861421

     Writing output data file pwscf.save
     Check: negative starting charge=   -0.006382
     NEW-OLD atomic charge density approx. for the potential
     Check: negative starting charge=   -0.006380

     negative rho (up, down):  1.495E-06 0.000E+00

     Self-consistent Calculation

[...]

     Threshold (ethr) on eigenvalues was too large:
     Diagonalizing with lowered threshold

     Davidson diagonalization with overlap
     ethr =  2.00E-08,  avg # of iterations =  1.0

[...]

     total energy              =    -329.49299353 Ry
     Harris-Foulkes estimate   =    -329.49299355 Ry
     estimated scf accuracy    <          3.0E-10 Ry

     iteration #  9     ecut=    30.00 Ry     beta=0.70
     Davidson diagonalization with overlap
     ethr =  5.40E-13,  avg # of iterations =  2.0

     End of self-consistent calculation

          k = 0.0000 0.0000 0.0000 ( 22119 PWs)   bands (ev):

    -8.5106  -7.7871  -7.6563  -7.2434  -6.8651  -6.8170  -6.6177  -6.4848
    -6.3134  -6.0754  -5.9589  -5.7668  -5.7279  -5.6852  -5.4600  -5.3591
    -5.3137  -5.2485  -5.1966  -5.1856  -5.1695  -5.1239  -5.0048  -4.9217
    -4.8493  -4.7238  -4.4810  -3.7674  -2.4402  -2.2090  -0.5432  -0.1860
     0.4488   0.8126

     the Fermi energy is    -3.7332 ev

!    total energy              =    -329.49299353 Ry
     Harris-Foulkes estimate   =    -329.49299353 Ry
     estimated scf accuracy    <          3.5E-11 Ry

     The total energy is the sum of the following terms:

     one-electron contribution =    -607.50432528 Ry
     hartree contribution      =     325.18102774 Ry
     xc contribution           =     -51.40015252 Ry
     ewald contribution        =       4.23517447 Ry
     smearing contrib. (-TS)   =      -0.00471794 Ry

     convergence has been achieved in   9 iterations

     Forces acting on atoms (Ry/au):

     atom    1 type  1   force =    -0.00009978    0.00010932    0.00010108
     atom    2 type  1   force =    -0.00068505    0.00050102    0.00013580
     atom    3 type  1   force =    -0.00004134    0.00043817    0.00000365
     atom    4 type  1   force =    -0.00005434   -0.00012994   -0.00035121
     atom    5 type  1   force =     0.00088052   -0.00091857    0.00011067

     Total force =     0.001655     Total SCF correction =     0.000028

     bfgs converged in  22 scf cycles and  21 bfgs steps
     (criteria: energy <  1.0E-04, force <  1.0E-03)

     End of BFGS Geometry Optimization

     Final energy   =    -329.4929935312 Ry
Begin final coordinates

ATOMIC_POSITIONS (bohr)
Au      -1.532591749   2.472137318  -1.240975090
Au      -0.788962325   3.997000657   3.639697533
Au       3.060208653   1.660738794   0.721204290
Au       3.835925973   3.369782789   5.884444845
Au       7.515827448   1.175653442   3.036861421
End final coordinates

     Writing output data file pwscf.save

     General routines

     Parallel routines

   This run was terminated on:  10:10: 9   3Aug2017

   JOB DONE.