     Program PWSCF v.6.0 (svn rev. 13079) starts on  3Aug2017 at 16: 4:42

     Current dimensions of program PWSCF are:
     Max number of different atomic species (ntypx) = 10
     Max number of k-points (npk) =  40000
     Max angular momentum in pseudopotentials (lmaxx) =  3
     Message from routine iosys:
     pot_extrapolation='second-order' not available, using 'atomic'
     Message from routine iosys:
     wfc_extrapolation='second-order' not available, using 'atomic'

     Subspace diagonalization in iterative solution of the eigenvalue problem:
     a serial algorithm will be used

     bravais-lattice index     =            1
     lattice parameter (alat)  =      20.0000  a.u.
     unit-cell volume          =    8000.0000 (a.u.)^3
     number of atoms/cell      =            5
     number of atomic types    =            1
     number of electrons       =        55.00
     number of Kohn-Sham states=           34
     kinetic-energy cutoff     =      30.0000  Ry
     charge density cutoff     =     120.0000  Ry
     convergence threshold     =      1.0E-08
     mixing beta               =       0.7000
     number of iterations used =            8  plain     mixing
     Exchange-correlation      = BLYP ( 1  3  1  3 0 0)
     nstep                     =           50

     celldm(1)=  20.000000  celldm(2)=   0.000000  celldm(3)=   0.000000
     celldm(4)=   0.000000  celldm(5)=   0.000000  celldm(6)=   0.000000

     crystal axes: (cart. coord. in units of alat)
               a(1) = (   1.000000   0.000000   0.000000 )
               a(2) = (   0.000000   1.000000   0.000000 )
               a(3) = (   0.000000   0.000000   1.000000 )

     reciprocal axes: (cart. coord. in units 2 pi/alat)
               b(1) = (  1.000000  0.000000  0.000000 )
               b(2) = (  0.000000  1.000000  0.000000 )
               b(3) = (  0.000000  0.000000  1.000000 )

     PseudoPot. # 1 for Au read from file:
     ./Au.blyp-d-hgh.UPF
     MD5 check sum: c10d8bae01f806c36a1643a1c69a8479
     Pseudo is Norm-conserving, Zval = 11.0
     Generated in analytical, separable form
     Using radial grid of 1279 points,  6 beta functions with:
                l(1) =   0
                l(2) =   0
                l(3) =   1
                l(4) =   1
                l(5) =   2
                l(6) =   2

     atomic species   valence    mass     pseudopotential
        Au            11.00    28.08600     Au( 1.00)

     No symmetry found

   Cartesian axes

     site n.     atom                  positions (alat units)
         1           Au  tau(   1) = (  -0.0773497   0.1201184  -0.0605397  )
         2           Au  tau(   2) = (  -0.0423629   0.1922798   0.1779692  )
         3           Au  tau(   3) = (   0.1545997   0.0867116   0.0266612  )
         4           Au  tau(   4) = (   0.2013413   0.1857644   0.2862660  )
         5           Au  tau(   5) = (   0.3663158   0.0541800   0.1572348  )

     number of k points=     1  Marzari-Vanderbilt smearing, width (Ry)=  0.0250
                       cart. coord. in units 2pi/alat
        k(    1) = (   0.0000000   0.0000000   0.0000000), wk =   2.0000000

     Initial potential from superposition of free atoms
     Check: negative starting charge=   -0.006362

     starting charge   54.99940, renormalised to   55.00000

     negative rho (up, down):  6.362E-03 0.000E+00
     Starting wfc are   45 randomized atomic wfcs

     Self-consistent Calculation

     iteration #  1     ecut=    30.00 Ry     beta=0.70
     Davidson diagonalization with overlap
     ethr =  1.00E-02,  avg # of iterations =  3.0

     Threshold (ethr) on eigenvalues was too large:
     Diagonalizing with lowered threshold

     Davidson diagonalization with overlap
     ethr =  4.15E-04,  avg # of iterations =  5.0

     negative rho (up, down):  8.635E-04 0.000E+00

     total energy              =    -329.37570390 Ry
     Harris-Foulkes estimate   =    -329.54740227 Ry
     estimated scf accuracy    <       0.28430852 Ry

[...]

     End of self-consistent calculation

          k = 0.0000 0.0000 0.0000 ( 22119 PWs)   bands (ev):

    -8.5541  -7.9015  -7.6238  -7.2300  -6.9374  -6.8590  -6.8280  -6.5420
    -6.2360  -6.1385  -6.0619  -5.7773  -5.7509  -5.6775  -5.4270  -5.3632
    -5.2971  -5.2422  -5.2187  -5.1618  -5.1594  -5.1256  -4.9886  -4.9264
    -4.9073  -4.6283  -4.4724  -3.6891  -2.4294  -2.2100  -0.5303  -0.1683
     0.4339   0.6994

     the Fermi energy is    -3.6492 ev

!    total energy              =    -329.48725996 Ry
     Harris-Foulkes estimate   =    -329.48726003 Ry
     estimated scf accuracy    <          6.1E-09 Ry

     The total energy is the sum of the following terms:

     one-electron contribution =    -610.12523885 Ry
     hartree contribution      =     326.47096334 Ry
     xc contribution           =     -51.41717207 Ry
     ewald contribution        =       5.59027563 Ry
     smearing contrib. (-TS)   =      -0.00608801 Ry

     convergence has been achieved in  12 iterations

     Forces acting on atoms (Ry/au):

     atom    1 type  1   force =    -0.00968176   -0.00214712   -0.01638196
     atom    2 type  1   force =     0.01270855    0.00573870    0.01630083
     atom    3 type  1   force =     0.00235786   -0.00108050    0.00455963
     atom    4 type  1   force =    -0.02578631    0.00963694    0.00721186
     atom    5 type  1   force =     0.02040166   -0.01214803   -0.01169035

     Total force =     0.048628     Total SCF correction =     0.000261

     BFGS Geometry Optimization

     number of scf cycles    =   1
     number of bfgs steps    =   0

     energy   new            =    -329.4872599617 Ry

     new trust radius        =       0.0284572543 bohr
     new conv_thr            =       0.0000000100 Ry

ATOMIC_POSITIONS (bohr)
Au      -1.556675758   2.400220883  -1.227175965
Au      -0.834548447   3.851334697   3.575685831
Au       3.094350855   1.733151503   0.537783627
Au       4.001039692   3.724925944   5.732531861
Au       7.346717657   1.071451973   3.133006646

     Writing output data file pwscf.save
     Check: negative starting charge=   -0.006362
     NEW-OLD atomic charge density approx. for the potential
     Check: negative starting charge=   -0.006342

[...]

     energy   old            =    -329.4872599617 Ry
     energy   new            =    -329.4892765277 Ry

     CASE: energy  _new < energy  _old

[...]

     number of scf cycles    =  29
     number of bfgs steps    =  28

     energy   old            =    -329.4933730195 Ry
     energy   new            =    -329.4933786792 Ry

     CASE: energy  _new < energy  _old

     new trust radius        =       0.0047066008 bohr
     new conv_thr            =            1.0E-10 Ry

ATOMIC_POSITIONS (bohr)
Au      -1.554890620   2.502563436  -1.263404097
Au      -0.772679770   4.199066382   3.558086048
Au       3.047414459   1.665929899   0.670494354
Au       3.842152180   3.390840859   5.778709789
Au       7.488887751   1.022684424   3.007945905

     Writing output data file pwscf.save
     Check: negative starting charge=   -0.006328
     NEW-OLD atomic charge density approx. for the potential
     Check: negative starting charge=   -0.006330

     negative rho (up, down):  5.330E-08 0.000E+00

     Self-consistent Calculation

[...]

     Threshold (ethr) on eigenvalues was too large:
     Diagonalizing with lowered threshold

     Davidson diagonalization with overlap
     ethr =  7.11E-09,  avg # of iterations =  1.0

[...]

     total energy              =    -329.49338529 Ry
     Harris-Foulkes estimate   =    -329.49338525 Ry
     estimated scf accuracy    <          4.3E-10 Ry

     iteration #  8     ecut=    30.00 Ry     beta=0.70
     Davidson diagonalization with overlap
     ethr =  7.90E-13,  avg # of iterations =  2.0

     End of self-consistent calculation

          k = 0.0000 0.0000 0.0000 ( 22119 PWs)   bands (ev):

    -8.4917  -7.7702  -7.6428  -7.2306  -6.8432  -6.8033  -6.6145  -6.4725
    -6.3069  -6.0694  -5.9494  -5.7634  -5.7229  -5.6809  -5.4617  -5.3550
    -5.3111  -5.2495  -5.1986  -5.1787  -5.1732  -5.1225  -5.0076  -4.9254
    -4.8375  -4.7392  -4.4824  -3.7701  -2.4436  -2.2081  -0.5339  -0.1821
     0.4544   0.7916

     the Fermi energy is    -3.7359 ev

!    total energy              =    -329.49338531 Ry
     Harris-Foulkes estimate   =    -329.49338529 Ry
     estimated scf accuracy    <          2.2E-11 Ry

     The total energy is the sum of the following terms:

     one-electron contribution =    -606.15790280 Ry
     hartree contribution      =     324.51530091 Ry
     xc contribution           =     -51.39611433 Ry
     ewald contribution        =       3.55005198 Ry
     smearing contrib. (-TS)   =      -0.00472107 Ry

     convergence has been achieved in   8 iterations

     Forces acting on atoms (Ry/au):

     atom    1 type  1   force =    -0.00010473    0.00006594   -0.00018068
     atom    2 type  1   force =     0.00071872    0.00006359   -0.00003066
     atom    3 type  1   force =    -0.00004860   -0.00015226   -0.00010177
     atom    4 type  1   force =     0.00032871   -0.00023082    0.00001109
     atom    5 type  1   force =    -0.00089410    0.00025356    0.00030201

     Total force =     0.001312     Total SCF correction =     0.000022

     bfgs converged in  30 scf cycles and  29 bfgs steps
     (criteria: energy <  1.0E-04, force <  1.0E-03)

     End of BFGS Geometry Optimization

     Final energy   =    -329.4933853051 Ry
Begin final coordinates

ATOMIC_POSITIONS (bohr)
Au      -1.554890620   2.502563436  -1.263404097
Au      -0.772679770   4.199066382   3.558086048
Au       3.047414459   1.665929899   0.670494354
Au       3.842152180   3.390840859   5.778709789
Au       7.488887751   1.022684424   3.007945905
End final coordinates

     Writing output data file pwscf.save

     General routines

     Parallel routines

   This run was terminated on:  16: 6: 8   3Aug2017

   JOB DONE.