     Program PWSCF v.6.0 (svn rev. 13079) starts on  3Aug2017 at 15:59:19

     Current dimensions of program PWSCF are:
     Max number of different atomic species (ntypx) = 10
     Max number of k-points (npk) =  40000
     Max angular momentum in pseudopotentials (lmaxx) =  3
     Message from routine iosys:
     pot_extrapolation='second-order' not available, using 'atomic'
     Message from routine iosys:
     wfc_extrapolation='second-order' not available, using 'atomic'

     Subspace diagonalization in iterative solution of the eigenvalue problem:
     a serial algorithm will be used

     bravais-lattice index     =            1
     lattice parameter (alat)  =      20.0000  a.u.
     unit-cell volume          =    8000.0000 (a.u.)^3
     number of atoms/cell      =            5
     number of atomic types    =            1
     number of electrons       =        55.00
     number of Kohn-Sham states=           34
     kinetic-energy cutoff     =      30.0000  Ry
     charge density cutoff     =     120.0000  Ry
     convergence threshold     =      1.0E-08
     mixing beta               =       0.7000
     number of iterations used =            8  plain     mixing
     Exchange-correlation      = BLYP ( 1  3  1  3 0 0)
     nstep                     =           50

     celldm(1)=  20.000000  celldm(2)=   0.000000  celldm(3)=   0.000000
     celldm(4)=   0.000000  celldm(5)=   0.000000  celldm(6)=   0.000000

     crystal axes: (cart. coord. in units of alat)
               a(1) = (   1.000000   0.000000   0.000000 )
               a(2) = (   0.000000   1.000000   0.000000 )
               a(3) = (   0.000000   0.000000   1.000000 )

     reciprocal axes: (cart. coord. in units 2 pi/alat)
               b(1) = (  1.000000  0.000000  0.000000 )
               b(2) = (  0.000000  1.000000  0.000000 )
               b(3) = (  0.000000  0.000000  1.000000 )

     PseudoPot. # 1 for Au read from file:
     ./Au.blyp-d-hgh.UPF
     MD5 check sum: c10d8bae01f806c36a1643a1c69a8479
     Pseudo is Norm-conserving, Zval = 11.0
     Generated in analytical, separable form
     Using radial grid of 1279 points,  6 beta functions with:
                l(1) =   0
                l(2) =   0
                l(3) =   1
                l(4) =   1
                l(5) =   2
                l(6) =   2

     atomic species   valence    mass     pseudopotential
        Au            11.00    28.08600     Au( 1.00)

     No symmetry found

   Cartesian axes

     site n.     atom                  positions (alat units)
         1           Au  tau(   1) = (  -0.0785477   0.1439268  -0.0542704  )
         2           Au  tau(   2) = (  -0.0430316   0.2155493   0.1803142  )
         3           Au  tau(   3) = (   0.1503702   0.0835456   0.0305700  )
         4           Au  tau(   4) = (   0.2006607   0.1845662   0.2868212  )
         5           Au  tau(   5) = (   0.3655453   0.0538877   0.1574431  )

     number of k points=     1  Marzari-Vanderbilt smearing, width (Ry)=  0.0250
                       cart. coord. in units 2pi/alat
        k(    1) = (   0.0000000   0.0000000   0.0000000), wk =   2.0000000

     Initial potential from superposition of free atoms
     Check: negative starting charge=   -0.006252

     starting charge   54.99940, renormalised to   55.00000

     negative rho (up, down):  6.252E-03 0.000E+00
     Starting wfc are   45 randomized atomic wfcs

     Self-consistent Calculation

     iteration #  1     ecut=    30.00 Ry     beta=0.70
     Davidson diagonalization with overlap
     ethr =  1.00E-02,  avg # of iterations =  3.0

     Threshold (ethr) on eigenvalues was too large:
     Diagonalizing with lowered threshold

     Davidson diagonalization with overlap
     ethr =  4.19E-04,  avg # of iterations =  5.0

     negative rho (up, down):  8.438E-04 0.000E+00

     total energy              =    -329.37150614 Ry
     Harris-Foulkes estimate   =    -329.54676152 Ry
     estimated scf accuracy    <       0.28890635 Ry

[...]

     End of self-consistent calculation

          k = 0.0000 0.0000 0.0000 ( 22119 PWs)   bands (ev):

    -8.4939  -7.8849  -7.6425  -7.1533  -6.9298  -6.8996  -6.8258  -6.5482
    -6.2045  -6.1720  -6.0488  -5.7572  -5.7397  -5.6633  -5.4186  -5.3427
    -5.2922  -5.2623  -5.2153  -5.1556  -5.1505  -5.1325  -5.0045  -4.9090
    -4.9016  -4.6572  -4.4523  -3.6920  -2.4571  -2.1874  -0.5204  -0.1743
     0.4526   0.7083

     the Fermi energy is    -3.6533 ev

!    total energy              =    -329.48637734 Ry
     Harris-Foulkes estimate   =    -329.48637738 Ry
     estimated scf accuracy    <          8.7E-09 Ry

     The total energy is the sum of the following terms:

     one-electron contribution =    -608.09526132 Ry
     hartree contribution      =     325.46715831 Ry
     xc contribution           =     -51.41496648 Ry
     ewald contribution        =       4.56249485 Ry
     smearing contrib. (-TS)   =      -0.00580270 Ry

     convergence has been achieved in  11 iterations

     Forces acting on atoms (Ry/au):

     atom    1 type  1   force =    -0.00779389   -0.00783489   -0.02472782
     atom    2 type  1   force =     0.01764441    0.00595514    0.02409728
     atom    3 type  1   force =    -0.00125816    0.00396402    0.00653280
     atom    4 type  1   force =    -0.02785346    0.01169991    0.00707358
     atom    5 type  1   force =     0.01926110   -0.01378417   -0.01297583

     Total force =     0.058422     Total SCF correction =     0.000422

     BFGS Geometry Optimization

     number of scf cycles    =   1
     number of bfgs steps    =   0

     energy   new            =    -329.4863773395 Ry

     new trust radius        =       0.0310280263 bohr
     new conv_thr            =       0.0000000100 Ry

ATOMIC_POSITIONS (bohr)
Au      -1.578747891   2.870701109  -1.110135817
Au      -0.842987591   4.316941136   3.630381277
Au       3.006146843   1.674876016   0.617933797
Au       3.985360542   3.703022908   5.743497576
Au       7.330167096   1.063970831   3.135886167

     Writing output data file pwscf.save
     Check: negative starting charge=   -0.006252
     NEW-OLD atomic charge density approx. for the potential
     Check: negative starting charge=   -0.006225

[...]

     energy   old            =    -329.4863773395 Ry
     energy   new            =    -329.4892461421 Ry

     CASE: energy  _new < energy  _old

[...]

     number of scf cycles    =  18
     number of bfgs steps    =  17

     energy   old            =    -329.4936374258 Ry
     energy   new            =    -329.4936670534 Ry

     CASE: energy  _new < energy  _old

     new trust radius        =       0.0055028538 bohr
     new conv_thr            =            1.0E-10 Ry

ATOMIC_POSITIONS (bohr)
Au      -1.614826930   2.724867086  -1.158173025
Au      -0.748173664   4.488897521   3.614479293
Au       2.962449692   1.727941633   0.760665110
Au       3.875051130   3.624150865   5.762833606
Au       7.425438771   1.063654894   3.037758016

     Writing output data file pwscf.save
     Check: negative starting charge=   -0.006339
     NEW-OLD atomic charge density approx. for the potential
     Check: negative starting charge=   -0.006340

     negative rho (up, down):  3.317E-07 0.000E+00

     Self-consistent Calculation

[...]

     Threshold (ethr) on eigenvalues was too large:
     Diagonalizing with lowered threshold

     Davidson diagonalization with overlap
     ethr =  9.73E-09,  avg # of iterations =  2.0

[...]

     total energy              =    -329.49368015 Ry
     Harris-Foulkes estimate   =    -329.49368015 Ry
     estimated scf accuracy    <          2.0E-10 Ry

     iteration #  9     ecut=    30.00 Ry     beta=0.70
     Davidson diagonalization with overlap
     ethr =  3.65E-13,  avg # of iterations =  2.0

     End of self-consistent calculation

          k = 0.0000 0.0000 0.0000 ( 22119 PWs)   bands (ev):

    -8.4976  -7.7775  -7.6555  -7.2405  -6.8537  -6.8073  -6.6182  -6.4760
    -6.3158  -6.0685  -5.9519  -5.7661  -5.7242  -5.6822  -5.4610  -5.3576
    -5.3115  -5.2459  -5.2000  -5.1780  -5.1746  -5.1195  -5.0053  -4.9200
    -4.8312  -4.7400  -4.4768  -3.7710  -2.4402  -2.1930  -0.5297  -0.1799
     0.4650   0.7760

     the Fermi energy is    -3.7375 ev

!    total energy              =    -329.49368014 Ry
     Harris-Foulkes estimate   =    -329.49368015 Ry
     estimated scf accuracy    <          2.9E-11 Ry

     The total energy is the sum of the following terms:

     one-electron contribution =    -606.43604084 Ry
     hartree contribution      =     324.65227594 Ry
     xc contribution           =     -51.39863612 Ry
     ewald contribution        =       3.69327492 Ry
     smearing contrib. (-TS)   =      -0.00455404 Ry

     convergence has been achieved in   9 iterations

     Forces acting on atoms (Ry/au):

     atom    1 type  1   force =    -0.00008364    0.00017711    0.00033036
     atom    2 type  1   force =    -0.00076499    0.00010749   -0.00071507
     atom    3 type  1   force =     0.00032463   -0.00053885    0.00044128
     atom    4 type  1   force =     0.00040686    0.00055650    0.00004024
     atom    5 type  1   force =     0.00011714   -0.00030225   -0.00009681

     Total force =     0.001561     Total SCF correction =     0.000024

     bfgs converged in  19 scf cycles and  18 bfgs steps
     (criteria: energy <  1.0E-04, force <  1.0E-03)

     End of BFGS Geometry Optimization

     Final energy   =    -329.4936801397 Ry
Begin final coordinates

ATOMIC_POSITIONS (bohr)
Au      -1.614826930   2.724867086  -1.158173025
Au      -0.748173664   4.488897521   3.614479293
Au       2.962449692   1.727941633   0.760665110
Au       3.875051130   3.624150865   5.762833606
Au       7.425438771   1.063654894   3.037758016
End final coordinates

     Writing output data file pwscf.save

     General routines

     Parallel routines

   This run was terminated on:  16: 0:14   3Aug2017

   JOB DONE.