     Program PWSCF v.6.0 (svn rev. 13079) starts on  4Aug2017 at  7:11:16

     Current dimensions of program PWSCF are:
     Max number of different atomic species (ntypx) = 10
     Max number of k-points (npk) =  40000
     Max angular momentum in pseudopotentials (lmaxx) =  3
     Message from routine iosys:
     pot_extrapolation='second-order' not available, using 'atomic'
     Message from routine iosys:
     wfc_extrapolation='second-order' not available, using 'atomic'

     Subspace diagonalization in iterative solution of the eigenvalue problem:
     a serial algorithm will be used

     bravais-lattice index     =            1
     lattice parameter (alat)  =      20.0000  a.u.
     unit-cell volume          =    8000.0000 (a.u.)^3
     number of atoms/cell      =            5
     number of atomic types    =            1
     number of electrons       =        55.00
     number of Kohn-Sham states=           34
     kinetic-energy cutoff     =      30.0000  Ry
     charge density cutoff     =     120.0000  Ry
     convergence threshold     =      1.0E-08
     mixing beta               =       0.7000
     number of iterations used =            8  plain     mixing
     Exchange-correlation      = BLYP ( 1  3  1  3 0 0)
     nstep                     =           50

     celldm(1)=  20.000000  celldm(2)=   0.000000  celldm(3)=   0.000000
     celldm(4)=   0.000000  celldm(5)=   0.000000  celldm(6)=   0.000000

     crystal axes: (cart. coord. in units of alat)
               a(1) = (   1.000000   0.000000   0.000000 )
               a(2) = (   0.000000   1.000000   0.000000 )
               a(3) = (   0.000000   0.000000   1.000000 )

     reciprocal axes: (cart. coord. in units 2 pi/alat)
               b(1) = (  1.000000  0.000000  0.000000 )
               b(2) = (  0.000000  1.000000  0.000000 )
               b(3) = (  0.000000  0.000000  1.000000 )

     PseudoPot. # 1 for Au read from file:
     ./Au.blyp-d-hgh.UPF
     MD5 check sum: c10d8bae01f806c36a1643a1c69a8479
     Pseudo is Norm-conserving, Zval = 11.0
     Generated in analytical, separable form
     Using radial grid of 1279 points,  6 beta functions with:
                l(1) =   0
                l(2) =   0
                l(3) =   1
                l(4) =   1
                l(5) =   2
                l(6) =   2

     atomic species   valence    mass     pseudopotential
        Au            11.00    28.08600     Au( 1.00)

     No symmetry found

   Cartesian axes

     site n.     atom                  positions (alat units)
         1           Au  tau(   1) = (   0.1352662  -0.0007626   0.0187846  )
         2           Au  tau(   2) = (  -0.0035631   0.3091122   0.2646425  )
         3           Au  tau(   3) = (   0.1512364   0.1873579  -0.0462989  )
         4           Au  tau(   4) = (   0.2385321   0.2396600   0.2429632  )
         5           Au  tau(   5) = (   0.2246554  -0.0092653   0.1855066  )

     number of k points=     1  Marzari-Vanderbilt smearing, width (Ry)=  0.0250
                       cart. coord. in units 2pi/alat
        k(    1) = (   0.0000000   0.0000000   0.0000000), wk =   2.0000000

     Initial potential from superposition of free atoms
     Check: negative starting charge=   -0.006011

     starting charge   54.99940, renormalised to   55.00000

     negative rho (up, down):  6.011E-03 0.000E+00
     Starting wfc are   45 randomized atomic wfcs

     Self-consistent Calculation

     iteration #  1     ecut=    30.00 Ry     beta=0.70
     Davidson diagonalization with overlap
     ethr =  1.00E-02,  avg # of iterations =  4.0

     negative rho (up, down):  4.767E-04 0.000E+00

     total energy              =    -328.54796639 Ry
     Harris-Foulkes estimate   =    -328.98719477 Ry
     estimated scf accuracy    <       0.64769346 Ry

[...]

     End of self-consistent calculation

          k = 0.0000 0.0000 0.0000 ( 22119 PWs)   bands (ev):

   -11.4340 -10.9552  -9.9778  -9.7777  -8.8344  -7.6771  -7.1224  -7.0139
    -6.8322  -6.6423  -6.2217  -6.0930  -5.8906  -5.7705  -5.6356  -5.4725
    -5.2541  -5.1943  -4.9212  -4.9150  -4.8700  -4.8332  -4.7325  -4.5987
    -4.5912  -4.3693  -4.1864  -3.4054  -3.0810  -1.4263  -0.5962  -0.3009
    -0.1041   0.5882

     the Fermi energy is    -3.3867 ev

!    total energy              =    -328.85174903 Ry
     Harris-Foulkes estimate   =    -328.85174902 Ry
     estimated scf accuracy    <          4.6E-09 Ry

     The total energy is the sum of the following terms:

     one-electron contribution =    -635.59187168 Ry
     hartree contribution      =     338.42459418 Ry
     xc contribution           =     -51.74134507 Ry
     ewald contribution        =      20.06519772 Ry
     smearing contrib. (-TS)   =      -0.00832418 Ry

     convergence has been achieved in  13 iterations

     Forces acting on atoms (Ry/au):

     atom    1 type  1   force =    -0.48155238   -0.49233093   -0.64659875
     atom    2 type  1   force =     0.02025705   -0.00050427   -0.00348185
     atom    3 type  1   force =     0.03437246    0.54959854   -0.19497365
     atom    4 type  1   force =    -0.02023061    0.01914111    0.00518878
     atom    5 type  1   force =     0.44715348   -0.07590445    0.83986547

     Total force =     1.464901     Total SCF correction =     0.000333

     BFGS Geometry Optimization

     number of scf cycles    =   1
     number of bfgs steps    =   0

     energy   new            =    -328.8517490277 Ry

     new trust radius        =       0.5000000000 bohr
     new conv_thr            =       0.0000000100 Ry

ATOMIC_POSITIONS (bohr)
Au       2.453071856  -0.273149284   0.036984422
Au      -0.060650727   6.181979846   5.291027098
Au       3.042733365   4.035055844  -1.028112273
Au       4.760045575   4.803226711   4.861981042
Au       4.727340930  -0.225067117   4.150079711

     Writing output data file pwscf.save
     Check: negative starting charge=   -0.006011
     NEW-OLD atomic charge density approx. for the potential
     Check: negative starting charge=   -0.005765

[...]

     energy   old            =    -328.8517490277 Ry
     energy   new            =    -329.3558418087 Ry

     CASE: energy  _new < energy  _old

[...]

     WARNING: bfgs curvature condition failed, Theta= 0.715
     new trust radius        =       0.2093455628 bohr
     new conv_thr            =       0.0000000020 Ry

[...]

     WARNING: info=  8 for Hessian
     new trust radius        =       0.1829349323 bohr
     new conv_thr            =       0.0000000024 Ry

[...]

     WARNING: info=  8 for Hessian
     uphill step: resetting bfgs history

[...]

     WARNING: bfgs curvature condition failed, Theta= 0.960
     new trust radius        =       0.0312272387 bohr
     new conv_thr            =       0.0000000019 Ry

[...]

     Self-consistent Calculation

[...]

     total energy              =    -329.49353598 Ry
     Harris-Foulkes estimate   =    -329.49353598 Ry
     estimated scf accuracy    <          7.5E-10 Ry

     iteration # 11     ecut=    30.00 Ry     beta=0.70
     Davidson diagonalization with overlap
     ethr =  1.37E-12,  avg # of iterations =  2.0

     End of self-consistent calculation

          k = 0.0000 0.0000 0.0000 ( 22119 PWs)   bands (ev):

    -8.4411  -7.7506  -7.6154  -7.2251  -6.8814  -6.7805  -6.6539  -6.4517
    -6.3056  -6.0335  -5.9805  -5.7531  -5.7240  -5.6579  -5.4218  -5.3718
    -5.3114  -5.2212  -5.1890  -5.1860  -5.1631  -5.1269  -4.9955  -4.9005
    -4.8575  -4.7256  -4.4565  -3.7685  -2.4292  -2.1687  -0.4932  -0.1743
     0.4262   0.7050

     the Fermi energy is    -3.7373 ev

!    total energy              =    -329.49353594 Ry
     Harris-Foulkes estimate   =    -329.49353598 Ry
     estimated scf accuracy    <          4.0E-11 Ry

     The total energy is the sum of the following terms:

     one-electron contribution =    -602.84318303 Ry
     hartree contribution      =     322.87408493 Ry
     xc contribution           =     -51.39621150 Ry
     ewald contribution        =       1.87584873 Ry
     smearing contrib. (-TS)   =      -0.00407506 Ry

     convergence has been achieved in  11 iterations

     Forces acting on atoms (Ry/au):

     atom    1 type  1   force =    -0.00170289   -0.00080067   -0.00326620
     atom    2 type  1   force =    -0.00175077   -0.00114157   -0.00098577
     atom    3 type  1   force =     0.00389566    0.00177242    0.00402174
     atom    4 type  1   force =     0.00136912   -0.00155734    0.00011186
     atom    5 type  1   force =    -0.00181112    0.00172716    0.00011837

     Total force =     0.008039     Total SCF correction =     0.000027

     number of scf cycles    =  50
     number of bfgs steps    =  49

     energy   old            =    -329.4931338261 Ry
     energy   new            =    -329.4935359434 Ry

     CASE: energy  _new < energy  _old

     new trust radius        =       0.0973148041 bohr
     new conv_thr            =       0.0000000004 Ry

ATOMIC_POSITIONS (bohr)
Au       3.002763372  -0.974568648  -1.037492388
Au       0.731368846   7.583487620   3.867006622
Au       1.605914974   3.366387599   1.166758947
Au       4.253706161   4.470560374   5.909126189
Au       5.328787648   0.076179054   3.406560630

     Writing output data file pwscf.save
     Check: negative starting charge=   -0.006075
     NEW-OLD atomic charge density approx. for the potential
     Check: negative starting charge=   -0.006092

     negative rho (up, down):  2.264E-03 0.000E+00

     Writing output data file pwscf.save

     General routines

     Parallel routines

   This run was terminated on:   7:13:38   4Aug2017

   JOB DONE.