     Program PWSCF v.6.0 (svn rev. 13079) starts on  4Aug2017 at  5:43:30

     Current dimensions of program PWSCF are:
     Max number of different atomic species (ntypx) = 10
     Max number of k-points (npk) =  40000
     Max angular momentum in pseudopotentials (lmaxx) =  3
     Message from routine iosys:
     pot_extrapolation='second-order' not available, using 'atomic'
     Message from routine iosys:
     wfc_extrapolation='second-order' not available, using 'atomic'

     Subspace diagonalization in iterative solution of the eigenvalue problem:
     a serial algorithm will be used

     bravais-lattice index     =            1
     lattice parameter (alat)  =      20.0000  a.u.
     unit-cell volume          =    8000.0000 (a.u.)^3
     number of atoms/cell      =            5
     number of atomic types    =            1
     number of electrons       =        55.00
     number of Kohn-Sham states=           34
     kinetic-energy cutoff     =      30.0000  Ry
     charge density cutoff     =     120.0000  Ry
     convergence threshold     =      1.0E-08
     mixing beta               =       0.7000
     number of iterations used =            8  plain     mixing
     Exchange-correlation      = BLYP ( 1  3  1  3 0 0)
     nstep                     =           50

     celldm(1)=  20.000000  celldm(2)=   0.000000  celldm(3)=   0.000000
     celldm(4)=   0.000000  celldm(5)=   0.000000  celldm(6)=   0.000000

     crystal axes: (cart. coord. in units of alat)
               a(1) = (   1.000000   0.000000   0.000000 )
               a(2) = (   0.000000   1.000000   0.000000 )
               a(3) = (   0.000000   0.000000   1.000000 )

     reciprocal axes: (cart. coord. in units 2 pi/alat)
               b(1) = (  1.000000  0.000000  0.000000 )
               b(2) = (  0.000000  1.000000  0.000000 )
               b(3) = (  0.000000  0.000000  1.000000 )

     PseudoPot. # 1 for Au read from file:
     ./Au.blyp-d-hgh.UPF
     MD5 check sum: c10d8bae01f806c36a1643a1c69a8479
     Pseudo is Norm-conserving, Zval = 11.0
     Generated in analytical, separable form
     Using radial grid of 1279 points,  6 beta functions with:
                l(1) =   0
                l(2) =   0
                l(3) =   1
                l(4) =   1
                l(5) =   2
                l(6) =   2

     atomic species   valence    mass     pseudopotential
        Au            11.00    28.08600     Au( 1.00)

     No symmetry found

   Cartesian axes

     site n.     atom                  positions (alat units)
         1           Au  tau(   1) = (  -0.0395129  -0.0091228   0.0219634  )
         2           Au  tau(   2) = (   0.0244510   0.1372521   0.2081583  )
         3           Au  tau(   3) = (   0.1506822   0.1274010   0.0033345  )
         4           Au  tau(   4) = (   0.2738094   0.2302895   0.2473487  )
         5           Au  tau(   5) = (   0.2569689  -0.0031913   0.1656444  )

     number of k points=     1  Marzari-Vanderbilt smearing, width (Ry)=  0.0250
                       cart. coord. in units 2pi/alat
        k(    1) = (   0.0000000   0.0000000   0.0000000), wk =   2.0000000

     Initial potential from superposition of free atoms
     Check: negative starting charge=   -0.006420

     starting charge   54.99940, renormalised to   55.00000

     negative rho (up, down):  6.420E-03 0.000E+00
     Starting wfc are   45 randomized atomic wfcs

     Self-consistent Calculation

     iteration #  1     ecut=    30.00 Ry     beta=0.70
     Davidson diagonalization with overlap
     ethr =  1.00E-02,  avg # of iterations =  3.0

     Threshold (ethr) on eigenvalues was too large:
     Diagonalizing with lowered threshold

     Davidson diagonalization with overlap
     ethr =  3.68E-04,  avg # of iterations =  2.0

     negative rho (up, down):  7.658E-04 0.000E+00

     total energy              =    -329.26435834 Ry
     Harris-Foulkes estimate   =    -329.41706368 Ry
     estimated scf accuracy    <       0.25441169 Ry

[...]

     End of self-consistent calculation

          k = 0.0000 0.0000 0.0000 ( 22119 PWs)   bands (ev):

    -9.3440  -8.6762  -7.9872  -7.8410  -7.5971  -7.3785  -7.0788  -7.0018
    -6.8170  -6.3231  -6.0077  -5.9611  -5.9011  -5.6752  -5.5148  -5.4161
    -5.3727  -5.2523  -5.1269  -5.0955  -5.0596  -4.9809  -4.9626  -4.7476
    -4.5777  -4.3866  -4.1255  -3.1861  -2.7649  -2.2324  -0.1100   0.0810
     0.3514   0.6094

     the Fermi energy is    -3.1485 ev

!    total energy              =    -329.35950510 Ry
     Harris-Foulkes estimate   =    -329.35950512 Ry
     estimated scf accuracy    <          3.9E-09 Ry

     The total energy is the sum of the following terms:

     one-electron contribution =    -671.42304582 Ry
     hartree contribution      =     356.95056112 Ry
     xc contribution           =     -51.58088621 Ry
     ewald contribution        =      36.70305677 Ry
     smearing contrib. (-TS)   =      -0.00919095 Ry

     convergence has been achieved in  12 iterations

     Forces acting on atoms (Ry/au):

     atom    1 type  1   force =    -0.09899505   -0.07791624   -0.02828390
     atom    2 type  1   force =    -0.03987134    0.04001413    0.09987583
     atom    3 type  1   force =     0.07210635    0.09908092   -0.14312493
     atom    4 type  1   force =    -0.00355839    0.02806822    0.01467988
     atom    5 type  1   force =     0.07031844   -0.08924703    0.05685310

     Total force =     0.287221     Total SCF correction =     0.000250

     BFGS Geometry Optimization

     number of scf cycles    =   1
     number of bfgs steps    =   0

     energy   new            =    -329.3595050962 Ry

     new trust radius        =       0.1884173502 bohr
     new conv_thr            =       0.0000000100 Ry

ATOMIC_POSITIONS (bohr)
Au      -0.889253052  -0.260371244   0.410984105
Au       0.449148659   2.785057131   4.263040834
Au       3.085751345   2.647099919  -0.076434925
Au       5.472629608   4.633858222   4.961652885
Au       5.209696440  -0.153072029   3.369741102

     Writing output data file pwscf.save
     Check: negative starting charge=   -0.006420
     NEW-OLD atomic charge density approx. for the potential
     Check: negative starting charge=   -0.006141

[...]

     energy   old            =    -329.3595050962 Ry
     energy   new            =    -329.4112625921 Ry

     CASE: energy  _new < energy  _old

[...]

     WARNING: bfgs curvature condition failed, Theta= 0.842
     new trust radius        =       0.0834252668 bohr
     new conv_thr            =       0.0000000022 Ry

[...]

     iteration #  1     ecut=    30.00 Ry     beta=0.70
     Davidson diagonalization with overlap
     c_bands:  1 eigenvalues not converged
     ethr =  1.00E-06,  avg # of iterations = 20.0

[...]

     Threshold (ethr) on eigenvalues was too large:
     Diagonalizing with lowered threshold

     Davidson diagonalization with overlap
     ethr =  7.62E-08,  avg # of iterations =  1.0

[...]

     Self-consistent Calculation

[...]

     total energy              =    -329.48708804 Ry
     Harris-Foulkes estimate   =    -329.48708807 Ry
     estimated scf accuracy    <          9.8E-10 Ry

     iteration # 10     ecut=    30.00 Ry     beta=0.70
     Davidson diagonalization with overlap
     ethr =  1.79E-12,  avg # of iterations =  2.0

     End of self-consistent calculation

          k = 0.0000 0.0000 0.0000 ( 22119 PWs)   bands (ev):

    -8.2948  -7.5989  -7.5296  -7.2433  -7.0854  -6.6890  -6.4828  -6.4010
    -6.2744  -6.0698  -5.9263  -5.6913  -5.6359  -5.5998  -5.5344  -5.4288
    -5.2769  -5.2213  -5.2124  -5.1218  -5.0893  -5.0778  -4.9700  -4.9372
    -4.8695  -4.5911  -4.4019  -3.7786  -2.5405  -2.0972  -0.4951  -0.2690
     0.3837   0.7944

     the Fermi energy is    -3.7621 ev

!    total energy              =    -329.48708805 Ry
     Harris-Foulkes estimate   =    -329.48708804 Ry
     estimated scf accuracy    <          1.2E-10 Ry

     The total energy is the sum of the following terms:

     one-electron contribution =    -599.66488425 Ry
     hartree contribution      =     321.35417613 Ry
     xc contribution           =     -51.40235859 Ry
     ewald contribution        =       0.22672817 Ry
     smearing contrib. (-TS)   =      -0.00074950 Ry

     convergence has been achieved in  10 iterations

     Forces acting on atoms (Ry/au):

     atom    1 type  1   force =     0.00167526    0.00119020    0.00035723
     atom    2 type  1   force =     0.00204448   -0.00240229    0.00089067
     atom    3 type  1   force =    -0.00018011   -0.00262125   -0.00238097
     atom    4 type  1   force =     0.00087139    0.00042508   -0.00043795
     atom    5 type  1   force =    -0.00441103    0.00340825    0.00157103

     Total force =     0.007896     Total SCF correction =     0.000047

     number of scf cycles    =  50
     number of bfgs steps    =  49

     energy   old            =    -329.4868591966 Ry
     energy   new            =    -329.4870880500 Ry

     CASE: energy  _new < energy  _old

     new trust radius        =       0.0375501869 bohr
     new conv_thr            =       0.0000000002 Ry

ATOMIC_POSITIONS (bohr)
Au      -2.133324652   0.959296584   0.003997701
Au       0.791832843   3.113351257   3.570935129
Au       2.955343918   0.031840660  -0.025027412
Au       4.763871326   4.239645731   6.487089934
Au       6.950249565   1.308437767   2.891988648

     Writing output data file pwscf.save
     Check: negative starting charge=   -0.006249
     NEW-OLD atomic charge density approx. for the potential
     Check: negative starting charge=   -0.006253

     negative rho (up, down):  3.289E-04 0.000E+00

     Writing output data file pwscf.save

     General routines

     Parallel routines

   This run was terminated on:   5:45:55   4Aug2017

   JOB DONE.