     Program PWSCF v.6.0 (svn rev. 13079) starts on  4Aug2017 at  1:30:53

     Current dimensions of program PWSCF are:
     Max number of different atomic species (ntypx) = 10
     Max number of k-points (npk) =  40000
     Max angular momentum in pseudopotentials (lmaxx) =  3
     Message from routine iosys:
     pot_extrapolation='second-order' not available, using 'atomic'
     Message from routine iosys:
     wfc_extrapolation='second-order' not available, using 'atomic'

     Subspace diagonalization in iterative solution of the eigenvalue problem:
     a serial algorithm will be used

     bravais-lattice index     =            1
     lattice parameter (alat)  =      20.0000  a.u.
     unit-cell volume          =    8000.0000 (a.u.)^3
     number of atoms/cell      =            5
     number of atomic types    =            1
     number of electrons       =        55.00
     number of Kohn-Sham states=           34
     kinetic-energy cutoff     =      30.0000  Ry
     charge density cutoff     =     120.0000  Ry
     convergence threshold     =      1.0E-08
     mixing beta               =       0.7000
     number of iterations used =            8  plain     mixing
     Exchange-correlation      = BLYP ( 1  3  1  3 0 0)
     nstep                     =           50

     celldm(1)=  20.000000  celldm(2)=   0.000000  celldm(3)=   0.000000
     celldm(4)=   0.000000  celldm(5)=   0.000000  celldm(6)=   0.000000

     crystal axes: (cart. coord. in units of alat)
               a(1) = (   1.000000   0.000000   0.000000 )
               a(2) = (   0.000000   1.000000   0.000000 )
               a(3) = (   0.000000   0.000000   1.000000 )

     reciprocal axes: (cart. coord. in units 2 pi/alat)
               b(1) = (  1.000000  0.000000  0.000000 )
               b(2) = (  0.000000  1.000000  0.000000 )
               b(3) = (  0.000000  0.000000  1.000000 )

     PseudoPot. # 1 for Au read from file:
     ./Au.blyp-d-hgh.UPF
     MD5 check sum: c10d8bae01f806c36a1643a1c69a8479
     Pseudo is Norm-conserving, Zval = 11.0
     Generated in analytical, separable form
     Using radial grid of 1279 points,  6 beta functions with:
                l(1) =   0
                l(2) =   0
                l(3) =   1
                l(4) =   1
                l(5) =   2
                l(6) =   2

     atomic species   valence    mass     pseudopotential
        Au            11.00    28.08600     Au( 1.00)

     No symmetry found

   Cartesian axes

     site n.     atom                  positions (alat units)
         1           Au  tau(   1) = (  -0.0793403   0.0382786  -0.0154714  )
         2           Au  tau(   2) = (  -0.0046461   0.1470596   0.2101821  )
         3           Au  tau(   3) = (   0.1533892   0.1487507   0.0009837  )
         4           Au  tau(   4) = (   0.2249582   0.2376526   0.2713020  )
         5           Au  tau(   5) = (   0.3302055   0.0398736   0.1463183  )

     number of k points=     1  Marzari-Vanderbilt smearing, width (Ry)=  0.0250
                       cart. coord. in units 2pi/alat
        k(    1) = (   0.0000000   0.0000000   0.0000000), wk =   2.0000000

     Initial potential from superposition of free atoms
     Check: negative starting charge=   -0.006247

     starting charge   54.99940, renormalised to   55.00000

     negative rho (up, down):  6.247E-03 0.000E+00
     Starting wfc are   45 randomized atomic wfcs

     Self-consistent Calculation

     iteration #  1     ecut=    30.00 Ry     beta=0.70
     Davidson diagonalization with overlap
     ethr =  1.00E-02,  avg # of iterations =  3.0

     Threshold (ethr) on eigenvalues was too large:
     Diagonalizing with lowered threshold

     Davidson diagonalization with overlap
     ethr =  3.49E-04,  avg # of iterations =  7.0

     negative rho (up, down):  8.241E-04 0.000E+00

     total energy              =    -329.35899389 Ry
     Harris-Foulkes estimate   =    -329.50802072 Ry
     estimated scf accuracy    <       0.25048983 Ry

[...]

     End of self-consistent calculation

          k = 0.0000 0.0000 0.0000 ( 22119 PWs)   bands (ev):

    -8.1979  -7.7007  -7.4325  -7.1768  -7.0631  -6.8296  -6.6813  -6.4493
    -6.4220  -6.0440  -5.9822  -5.7204  -5.6323  -5.5220  -5.4539  -5.3703
    -5.3250  -5.2200  -5.1531  -5.1165  -5.0662  -5.0194  -4.9275  -4.9005
    -4.6788  -4.5225  -4.3173  -3.6359  -2.6411  -2.2643  -0.3615  -0.0901
     0.2863   0.5502

     the Fermi energy is    -3.6072 ev

!    total energy              =    -329.45619457 Ry
     Harris-Foulkes estimate   =    -329.45619463 Ry
     estimated scf accuracy    <          3.4E-09 Ry

     The total energy is the sum of the following terms:

     one-electron contribution =    -613.47498677 Ry
     hartree contribution      =     328.28678737 Ry
     xc contribution           =     -51.39670172 Ry
     ewald contribution        =       7.13213577 Ry
     smearing contrib. (-TS)   =      -0.00342923 Ry

     convergence has been achieved in  12 iterations

     Forces acting on atoms (Ry/au):

     atom    1 type  1   force =    -0.00000781    0.01097909    0.00413609
     atom    2 type  1   force =    -0.01046361   -0.00267302   -0.00833091
     atom    3 type  1   force =    -0.00702400   -0.01182076   -0.00152391
     atom    4 type  1   force =     0.00332903   -0.00191310    0.00346064
     atom    5 type  1   force =     0.01416640    0.00542779    0.00225809

     Total force =     0.027875     Total SCF correction =     0.000228

     BFGS Geometry Optimization

     number of scf cycles    =   1
     number of bfgs steps    =   0

     energy   new            =    -329.4561945744 Ry

     new trust radius        =       0.0153377573 bohr
     new conv_thr            =       0.0000000100 Ry

ATOMIC_POSITIONS (bohr)
Au      -1.586813815   0.776550089  -0.305290906
Au      -0.103384613   2.938518977   4.195311091
Au       3.060760002   2.963192244   0.018150086
Au       4.502493026   4.751138898   5.429501637
Au       6.618275400   0.802898793   2.928623091

     Writing output data file pwscf.save
     Check: negative starting charge=   -0.006247
     NEW-OLD atomic charge density approx. for the potential
     Check: negative starting charge=   -0.006242

[...]

     energy   old            =    -329.4561945744 Ry
     energy   new            =    -329.4569176423 Ry

     CASE: energy  _new < energy  _old

     WARNING: bfgs curvature condition failed, Theta= 0.929
     new trust radius        =       0.0168715330 bohr
     new conv_thr            =       0.0000000007 Ry

[...]

     iteration #  1     ecut=    30.00 Ry     beta=0.70
     Davidson diagonalization with overlap
     c_bands:  1 eigenvalues not converged
     ethr =  1.00E-06,  avg # of iterations = 20.0

[...]

     WARNING: info= 12 for Hessian
     new trust radius        =       0.0541980539 bohr
     new conv_thr            =       0.0000000001 Ry

[...]

     CASE: energy  _new > energy  _old

[...]

     WARNING: info= 12 for Hessian
     new trust radius        =       0.0084921297 bohr
     new conv_thr            =            1.0E-10 Ry

[...]

     WARNING: info= 12 for Hessian
     uphill step: resetting bfgs history

[...]

     WARNING: bfgs curvature condition failed, Theta= 0.978
     new trust radius        =       0.0062319455 bohr
     new conv_thr            =            1.0E-10 Ry

[...]

     Threshold (ethr) on eigenvalues was too large:
     Diagonalizing with lowered threshold

     Davidson diagonalization with overlap
     ethr =  8.73E-08,  avg # of iterations =  1.0

[...]

     Self-consistent Calculation

[...]

     total energy              =    -329.49138640 Ry
     Harris-Foulkes estimate   =    -329.49138637 Ry
     estimated scf accuracy    <          1.7E-10 Ry

     iteration # 11     ecut=    30.00 Ry     beta=0.70
     Davidson diagonalization with overlap
     ethr =  3.10E-13,  avg # of iterations =  3.0

     End of self-consistent calculation

          k = 0.0000 0.0000 0.0000 ( 22119 PWs)   bands (ev):

    -8.5137  -7.8072  -7.6753  -7.2731  -6.8699  -6.8205  -6.6462  -6.4963
    -6.3334  -6.0691  -5.9735  -5.7714  -5.7307  -5.6885  -5.4708  -5.3681
    -5.3161  -5.2452  -5.1947  -5.1859  -5.1779  -5.1246  -5.0096  -4.9070
    -4.8264  -4.7420  -4.4643  -3.7746  -2.5174  -2.1653  -0.5660  -0.1763
     0.5208   0.8975

     the Fermi energy is    -3.7432 ev

!    total energy              =    -329.49138641 Ry
     Harris-Foulkes estimate   =    -329.49138640 Ry
     estimated scf accuracy    <          2.4E-11 Ry

     The total energy is the sum of the following terms:

     one-electron contribution =    -610.53959297 Ry
     hartree contribution      =     326.69168891 Ry
     xc contribution           =     -51.40721308 Ry
     ewald contribution        =       5.76784806 Ry
     smearing contrib. (-TS)   =      -0.00411732 Ry

     convergence has been achieved in  11 iterations

     Forces acting on atoms (Ry/au):

     atom    1 type  1   force =     0.00093944    0.00028082   -0.00180308
     atom    2 type  1   force =    -0.00185271    0.00019621    0.00019802
     atom    3 type  1   force =     0.00014951   -0.00051831    0.00013891
     atom    4 type  1   force =     0.00081853    0.00153194    0.00252210
     atom    5 type  1   force =    -0.00005477   -0.00149067   -0.00105596

     Total force =     0.004555     Total SCF correction =     0.000020

     number of scf cycles    =  50
     number of bfgs steps    =  48

     energy   old            =    -329.4913689140 Ry
     energy   new            =    -329.4913864099 Ry

     CASE: energy  _new < energy  _old

     new trust radius        =       0.0076979635 bohr
     new conv_thr            =            1.0E-10 Ry

ATOMIC_POSITIONS (bohr)
Au      -1.799032355   1.582357982  -0.609768824
Au      -0.735233815   3.684424402   3.954841490
Au       3.063248898   1.474284083   0.787679076
Au       4.175159052   3.803845868   5.556687604
Au       7.787188220   1.687386665   2.576855655

     Writing output data file pwscf.save
     Check: negative starting charge=   -0.006445
     NEW-OLD atomic charge density approx. for the potential
     Check: negative starting charge=   -0.006450

     negative rho (up, down):  2.844E-06 0.000E+00

     Writing output data file pwscf.save

     General routines

     Parallel routines

   This run was terminated on:   1:33: 7   4Aug2017

   JOB DONE.