     Program PWSCF v.6.0 (svn rev. 13079) starts on  3Aug2017 at 22: 0:48

     Current dimensions of program PWSCF are:
     Max number of different atomic species (ntypx) = 10
     Max number of k-points (npk) =  40000
     Max angular momentum in pseudopotentials (lmaxx) =  3
     Message from routine iosys:
     pot_extrapolation='second-order' not available, using 'atomic'
     Message from routine iosys:
     wfc_extrapolation='second-order' not available, using 'atomic'

     Subspace diagonalization in iterative solution of the eigenvalue problem:
     a serial algorithm will be used

     bravais-lattice index     =            1
     lattice parameter (alat)  =      20.0000  a.u.
     unit-cell volume          =    8000.0000 (a.u.)^3
     number of atoms/cell      =            5
     number of atomic types    =            1
     number of electrons       =        55.00
     number of Kohn-Sham states=           34
     kinetic-energy cutoff     =      30.0000  Ry
     charge density cutoff     =     120.0000  Ry
     convergence threshold     =      1.0E-08
     mixing beta               =       0.7000
     number of iterations used =            8  plain     mixing
     Exchange-correlation      = BLYP ( 1  3  1  3 0 0)
     nstep                     =           50

     celldm(1)=  20.000000  celldm(2)=   0.000000  celldm(3)=   0.000000
     celldm(4)=   0.000000  celldm(5)=   0.000000  celldm(6)=   0.000000

     crystal axes: (cart. coord. in units of alat)
               a(1) = (   1.000000   0.000000   0.000000 )
               a(2) = (   0.000000   1.000000   0.000000 )
               a(3) = (   0.000000   0.000000   1.000000 )

     reciprocal axes: (cart. coord. in units 2 pi/alat)
               b(1) = (  1.000000  0.000000  0.000000 )
               b(2) = (  0.000000  1.000000  0.000000 )
               b(3) = (  0.000000  0.000000  1.000000 )

     PseudoPot. # 1 for Au read from file:
     ./Au.blyp-d-hgh.UPF
     MD5 check sum: c10d8bae01f806c36a1643a1c69a8479
     Pseudo is Norm-conserving, Zval = 11.0
     Generated in analytical, separable form
     Using radial grid of 1279 points,  6 beta functions with:
                l(1) =   0
                l(2) =   0
                l(3) =   1
                l(4) =   1
                l(5) =   2
                l(6) =   2

     atomic species   valence    mass     pseudopotential
        Au            11.00    28.08600     Au( 1.00)

     No symmetry found

   Cartesian axes

     site n.     atom                  positions (alat units)
         1           Au  tau(   1) = (  -0.0899213   0.1265730  -0.0504889  )
         2           Au  tau(   2) = (  -0.0330532   0.1906529   0.1864666  )
         3           Au  tau(   3) = (   0.1596217   0.0838368   0.0140624  )
         4           Au  tau(   4) = (   0.2037473   0.2025692   0.2878953  )
         5           Au  tau(   5) = (   0.3857142   0.0686752   0.1669159  )

     number of k points=     1  Marzari-Vanderbilt smearing, width (Ry)=  0.0250
                       cart. coord. in units 2pi/alat
        k(    1) = (   0.0000000   0.0000000   0.0000000), wk =   2.0000000

     Initial potential from superposition of free atoms
     Check: negative starting charge=   -0.006190

     starting charge   54.99940, renormalised to   55.00000

     negative rho (up, down):  6.190E-03 0.000E+00
     Starting wfc are   45 randomized atomic wfcs

     Self-consistent Calculation

     iteration #  1     ecut=    30.00 Ry     beta=0.70
     Davidson diagonalization with overlap
     ethr =  1.00E-02,  avg # of iterations =  3.0

     Threshold (ethr) on eigenvalues was too large:
     Diagonalizing with lowered threshold

     Davidson diagonalization with overlap
     ethr =  3.82E-04,  avg # of iterations =  5.0

     negative rho (up, down):  8.369E-04 0.000E+00

     total energy              =    -329.37146414 Ry
     Harris-Foulkes estimate   =    -329.52819532 Ry
     estimated scf accuracy    <       0.26291956 Ry

[...]

     End of self-consistent calculation

          k = 0.0000 0.0000 0.0000 ( 22119 PWs)   bands (ev):

    -8.0254  -7.4735  -7.4479  -7.0563  -6.8509  -6.6573  -6.5257  -6.3314
    -6.1944  -6.0145  -5.8040  -5.6810  -5.6143  -5.5794  -5.4325  -5.4009
    -5.3313  -5.2296  -5.1895  -5.1752  -5.1439  -5.1235  -5.1063  -4.9574
    -4.8577  -4.7173  -4.4462  -3.7888  -2.7347  -2.1770  -0.4748  -0.1994
     0.3533   0.6438

     the Fermi energy is    -3.7620 ev

!    total energy              =    -329.47605348 Ry
     Harris-Foulkes estimate   =    -329.47605350 Ry
     estimated scf accuracy    <          7.6E-09 Ry

     The total energy is the sum of the following terms:

     one-electron contribution =    -589.84785770 Ry
     hartree contribution      =     316.47423553 Ry
     xc contribution           =     -51.35029970 Ry
     ewald contribution        =      -4.74905742 Ry
     smearing contrib. (-TS)   =      -0.00307419 Ry

     convergence has been achieved in  12 iterations

     Forces acting on atoms (Ry/au):

     atom    1 type  1   force =     0.01349769   -0.00688368   -0.00788573
     atom    2 type  1   force =     0.01245183    0.00070557    0.00101127
     atom    3 type  1   force =     0.00134916    0.00872469    0.03025131
     atom    4 type  1   force =     0.00129708   -0.00587128   -0.00775674
     atom    5 type  1   force =    -0.02859576    0.00332470   -0.01562011

     Total force =     0.051093     Total SCF correction =     0.000285

     BFGS Geometry Optimization

     number of scf cycles    =   1
     number of bfgs steps    =   0

     energy   new            =    -329.4760534783 Ry

     new trust radius        =       0.0327529962 bohr
     new conv_thr            =       0.0000000100 Ry

ATOMIC_POSITIONS (bohr)
Au      -1.784929311   2.524576315  -1.017663731
Au      -0.648613172   3.813763571   3.730342272
Au       3.193783157   1.685459695   0.311499311
Au       4.076244082   4.045512724   5.750150260
Au       7.685688244   1.376829695   3.322696888

     Writing output data file pwscf.save
     Check: negative starting charge=   -0.006190
     NEW-OLD atomic charge density approx. for the potential
     Check: negative starting charge=   -0.006214

[...]

     energy   old            =    -329.4760534783 Ry
     energy   new            =    -329.4785228101 Ry

     CASE: energy  _new < energy  _old

     WARNING: bfgs curvature condition failed, Theta= 0.896
     new trust radius        =       0.0360282958 bohr
     new conv_thr            =       0.0000000025 Ry

[...]

     CASE: energy  _new > energy  _old

[...]

     WARNING: bfgs curvature condition failed, Theta= 0.062
     new trust radius        =       0.0501941043 bohr
     new conv_thr            =            1.0E-10 Ry

[...]

     CASE: energy  _new > energy  _old

[...]

     number of scf cycles    =  44
     number of bfgs steps    =  41

     energy   old            =    -329.4935747190 Ry
     energy   new            =    -329.4935921880 Ry

     CASE: energy  _new < energy  _old

     new trust radius        =       0.0049549294 bohr
     new conv_thr            =            1.0E-10 Ry

ATOMIC_POSITIONS (bohr)
Au      -1.575774389   2.508085751  -1.093172836
Au      -0.542293800   4.522669577   3.571277229
Au       3.044745714   1.643790325   0.793187777
Au       4.051602165   3.668555375   5.806316845
Au       7.543893310   1.103040971   3.019415985

     Writing output data file pwscf.save
     Check: negative starting charge=   -0.006365
     NEW-OLD atomic charge density approx. for the potential
     Check: negative starting charge=   -0.006362

     negative rho (up, down):  3.493E-07 0.000E+00

     Self-consistent Calculation

[...]

     Threshold (ethr) on eigenvalues was too large:
     Diagonalizing with lowered threshold

     Davidson diagonalization with overlap
     ethr =  1.44E-08,  avg # of iterations =  2.0

[...]

     total energy              =    -329.49360876 Ry
     Harris-Foulkes estimate   =    -329.49360876 Ry
     estimated scf accuracy    <          8.7E-10 Ry

     iteration #  8     ecut=    30.00 Ry     beta=0.70
     Davidson diagonalization with overlap
     ethr =  1.59E-12,  avg # of iterations =  2.0

     End of self-consistent calculation

          k = 0.0000 0.0000 0.0000 ( 22119 PWs)   bands (ev):

    -8.4938  -7.7682  -7.6464  -7.2272  -6.8588  -6.8037  -6.6032  -6.4733
    -6.3046  -6.0688  -5.9501  -5.7640  -5.7234  -5.6807  -5.4544  -5.3577
    -5.3133  -5.2457  -5.2027  -5.1845  -5.1651  -5.1239  -5.0041  -4.9278
    -4.8490  -4.7236  -4.4841  -3.7749  -2.4385  -2.2049  -0.5269  -0.1786
     0.4621   0.7651

     the Fermi energy is    -3.7413 ev

!    total energy              =    -329.49360877 Ry
     Harris-Foulkes estimate   =    -329.49360876 Ry
     estimated scf accuracy    <          9.7E-11 Ry

     The total energy is the sum of the following terms:

     one-electron contribution =    -605.86093966 Ry
     hartree contribution      =     324.36688503 Ry
     xc contribution           =     -51.39620290 Ry
     ewald contribution        =       3.40121819 Ry
     smearing contrib. (-TS)   =      -0.00456942 Ry

     convergence has been achieved in   8 iterations

     Forces acting on atoms (Ry/au):

     atom    1 type  1   force =     0.00098785    0.00086553    0.00084996
     atom    2 type  1   force =    -0.00071694   -0.00038402   -0.00017381
     atom    3 type  1   force =    -0.00071665    0.00080060   -0.00037581
     atom    4 type  1   force =     0.00016256   -0.00054491   -0.00032074
     atom    5 type  1   force =     0.00028318   -0.00073721    0.00002039

     Total force =     0.002342     Total SCF correction =     0.000028

     bfgs converged in  45 scf cycles and  42 bfgs steps
     (criteria: energy <  1.0E-04, force <  1.0E-03)

     End of BFGS Geometry Optimization

     Final energy   =    -329.4936087748 Ry
Begin final coordinates

ATOMIC_POSITIONS (bohr)
Au      -1.575774389   2.508085751  -1.093172836
Au      -0.542293800   4.522669577   3.571277229
Au       3.044745714   1.643790325   0.793187777
Au       4.051602165   3.668555375   5.806316845
Au       7.543893310   1.103040971   3.019415985
End final coordinates

     Writing output data file pwscf.save

     General routines

     Parallel routines

   This run was terminated on:  22: 2:44   3Aug2017

   JOB DONE.