     Program PWSCF v.6.0 (svn rev. 13079) starts on  3Aug2017 at 15:42:55

     Current dimensions of program PWSCF are:
     Max number of different atomic species (ntypx) = 10
     Max number of k-points (npk) =  40000
     Max angular momentum in pseudopotentials (lmaxx) =  3
     Message from routine iosys:
     pot_extrapolation='second-order' not available, using 'atomic'
     Message from routine iosys:
     wfc_extrapolation='second-order' not available, using 'atomic'

     Subspace diagonalization in iterative solution of the eigenvalue problem:
     a serial algorithm will be used

     bravais-lattice index     =            1
     lattice parameter (alat)  =      20.0000  a.u.
     unit-cell volume          =    8000.0000 (a.u.)^3
     number of atoms/cell      =            5
     number of atomic types    =            1
     number of electrons       =        55.00
     number of Kohn-Sham states=           34
     kinetic-energy cutoff     =      30.0000  Ry
     charge density cutoff     =     120.0000  Ry
     convergence threshold     =      1.0E-08
     mixing beta               =       0.7000
     number of iterations used =            8  plain     mixing
     Exchange-correlation      = BLYP ( 1  3  1  3 0 0)
     nstep                     =           50

     celldm(1)=  20.000000  celldm(2)=   0.000000  celldm(3)=   0.000000
     celldm(4)=   0.000000  celldm(5)=   0.000000  celldm(6)=   0.000000

     crystal axes: (cart. coord. in units of alat)
               a(1) = (   1.000000   0.000000   0.000000 )
               a(2) = (   0.000000   1.000000   0.000000 )
               a(3) = (   0.000000   0.000000   1.000000 )

     reciprocal axes: (cart. coord. in units 2 pi/alat)
               b(1) = (  1.000000  0.000000  0.000000 )
               b(2) = (  0.000000  1.000000  0.000000 )
               b(3) = (  0.000000  0.000000  1.000000 )

     PseudoPot. # 1 for Au read from file:
     ./Au.blyp-d-hgh.UPF
     MD5 check sum: c10d8bae01f806c36a1643a1c69a8479
     Pseudo is Norm-conserving, Zval = 11.0
     Generated in analytical, separable form
     Using radial grid of 1279 points,  6 beta functions with:
                l(1) =   0
                l(2) =   0
                l(3) =   1
                l(4) =   1
                l(5) =   2
                l(6) =   2

     atomic species   valence    mass     pseudopotential
        Au            11.00    28.08600     Au( 1.00)

     No symmetry found

   Cartesian axes

     site n.     atom                  positions (alat units)
         1           Au  tau(   1) = (  -0.1051384   0.0844825  -0.0342669  )
         2           Au  tau(   2) = (  -0.0374492   0.1569989   0.2105168  )
         3           Au  tau(   3) = (   0.1439208   0.1139605   0.0274027  )
         4           Au  tau(   4) = (   0.2028298   0.1707382   0.2862777  )
         5           Au  tau(   5) = (   0.3842185   0.0837144   0.1099607  )

     number of k points=     1  Marzari-Vanderbilt smearing, width (Ry)=  0.0250
                       cart. coord. in units 2pi/alat
        k(    1) = (   0.0000000   0.0000000   0.0000000), wk =   2.0000000

     Initial potential from superposition of free atoms
     Check: negative starting charge=   -0.006574

     starting charge   54.99940, renormalised to   55.00000

     negative rho (up, down):  6.574E-03 0.000E+00
     Starting wfc are   45 randomized atomic wfcs

     Self-consistent Calculation

     iteration #  1     ecut=    30.00 Ry     beta=0.70
     Davidson diagonalization with overlap
     ethr =  1.00E-02,  avg # of iterations =  3.0

     Threshold (ethr) on eigenvalues was too large:
     Diagonalizing with lowered threshold

     Davidson diagonalization with overlap
     ethr =  4.02E-04,  avg # of iterations =  3.0

     negative rho (up, down):  9.092E-04 0.000E+00

     total energy              =    -329.37705618 Ry
     Harris-Foulkes estimate   =    -329.54106236 Ry
     estimated scf accuracy    <       0.27524751 Ry

[...]

     End of self-consistent calculation

          k = 0.0000 0.0000 0.0000 ( 22119 PWs)   bands (ev):

    -8.4152  -7.8086  -7.6872  -7.2391  -6.8220  -6.7516  -6.5779  -6.3935
    -6.3105  -6.0386  -5.8224  -5.7793  -5.6784  -5.6012  -5.4635  -5.3832
    -5.3008  -5.2616  -5.2263  -5.1725  -5.1344  -5.1024  -5.0003  -4.9133
    -4.8378  -4.6924  -4.4827  -3.8384  -2.5486  -2.1923  -0.5749  -0.1997
     0.4825   0.8264

     the Fermi energy is    -3.8169 ev

!    total energy              =    -329.48436280 Ry
     Harris-Foulkes estimate   =    -329.48436279 Ry
     estimated scf accuracy    <          8.3E-10 Ry

     The total energy is the sum of the following terms:

     one-electron contribution =    -607.02773091 Ry
     hartree contribution      =     324.98175721 Ry
     xc contribution           =     -51.39435424 Ry
     ewald contribution        =       3.95772089 Ry
     smearing contrib. (-TS)   =      -0.00175575 Ry

     convergence has been achieved in  13 iterations

     Forces acting on atoms (Ry/au):

     atom    1 type  1   force =     0.01202599    0.00674116    0.00924000
     atom    2 type  1   force =    -0.02095918   -0.00197913   -0.00916870
     atom    3 type  1   force =     0.00091931   -0.01027252   -0.00548992
     atom    4 type  1   force =     0.02401532   -0.00335942   -0.00069812
     atom    5 type  1   force =    -0.01600143    0.00886990    0.00611673

     Total force =     0.043587     Total SCF correction =     0.000131

     BFGS Geometry Optimization

     number of scf cycles    =   1
     number of bfgs steps    =   0

     energy   new            =    -329.4843628045 Ry

     new trust radius        =       0.0242591932 bohr
     new conv_thr            =       0.0000000100 Ry

ATOMIC_POSITIONS (bohr)
Au      -2.090742008   1.696390164  -0.676096999
Au      -0.769942184   3.137998868   4.201167302
Au       2.879336305   2.268937484   0.542565085
Au       4.080611316   3.411403580   5.724855881
Au       7.668369571   1.683157904   2.205330731

     Writing output data file pwscf.save
     Check: negative starting charge=   -0.006574
     NEW-OLD atomic charge density approx. for the potential
     Check: negative starting charge=   -0.006583

[...]

     energy   old            =    -329.4843628045 Ry
     energy   new            =    -329.4860482198 Ry

     CASE: energy  _new < energy  _old

[...]

     WARNING: bfgs curvature condition failed, Theta= 0.970
     new trust radius        =       0.0099382721 bohr
     new conv_thr            =            1.0E-10 Ry

[...]

     WARNING: bfgs curvature condition failed, Theta= 0.569
     uphill step: resetting bfgs history

[...]

     WARNING: bfgs curvature condition failed, Theta= 0.890
     new trust radius        =       0.0045215692 bohr
     new conv_thr            =            1.0E-10 Ry

[...]

     number of scf cycles    =  25
     number of bfgs steps    =  24

     energy   old            =    -329.4907380307 Ry
     energy   new            =    -329.4907578974 Ry

     CASE: energy  _new < energy  _old

     new trust radius        =       0.0072846983 bohr
     new conv_thr            =            1.0E-10 Ry

ATOMIC_POSITIONS (bohr)
Au      -2.017736336   1.877926850  -0.671987098
Au      -0.830416637   3.243723867   4.182139162
Au       2.868244129   1.857756589   0.553895574
Au       4.121278309   3.319463270   5.705211496
Au       7.626263535   1.899017425   2.228562866

     Writing output data file pwscf.save
     Check: negative starting charge=   -0.006494
     NEW-OLD atomic charge density approx. for the potential
     Check: negative starting charge=   -0.006492

     negative rho (up, down):  1.401E-06 0.000E+00

     Self-consistent Calculation

[...]

     Threshold (ethr) on eigenvalues was too large:
     Diagonalizing with lowered threshold

     Davidson diagonalization with overlap
     ethr =  2.26E-08,  avg # of iterations =  2.0

[...]

     total energy              =    -329.49077431 Ry
     Harris-Foulkes estimate   =    -329.49077432 Ry
     estimated scf accuracy    <          3.5E-10 Ry

     iteration #  9     ecut=    30.00 Ry     beta=0.70
     Davidson diagonalization with overlap
     ethr =  6.30E-13,  avg # of iterations =  2.0

     End of self-consistent calculation

          k = 0.0000 0.0000 0.0000 ( 22119 PWs)   bands (ev):

    -8.5281  -7.7983  -7.6599  -7.2394  -6.8677  -6.8323  -6.6149  -6.4890
    -6.3121  -6.0847  -5.9659  -5.7739  -5.7381  -5.6881  -5.4602  -5.3671
    -5.3159  -5.2484  -5.1961  -5.1926  -5.1730  -5.1288  -4.9942  -4.9205
    -4.8526  -4.7272  -4.4788  -3.7854  -2.5077  -2.1957  -0.5793  -0.2139
     0.5119   0.9335

     the Fermi energy is    -3.7538 ev

!    total energy              =    -329.49077432 Ry
     Harris-Foulkes estimate   =    -329.49077431 Ry
     estimated scf accuracy    <          5.9E-11 Ry

     The total energy is the sum of the following terms:

     one-electron contribution =    -610.60578548 Ry
     hartree contribution      =     326.72686360 Ry
     xc contribution           =     -51.40529485 Ry
     ewald contribution        =       5.79756301 Ry
     smearing contrib. (-TS)   =      -0.00412060 Ry

     convergence has been achieved in   9 iterations

     Forces acting on atoms (Ry/au):

     atom    1 type  1   force =    -0.00002156    0.00054213    0.00010136
     atom    2 type  1   force =    -0.00090375   -0.00029955   -0.00060464
     atom    3 type  1   force =     0.00082962   -0.00001540    0.00022324
     atom    4 type  1   force =     0.00017600   -0.00034024    0.00069999
     atom    5 type  1   force =    -0.00008031    0.00011305   -0.00041996

     Total force =     0.001774     Total SCF correction =     0.000027

     bfgs converged in  26 scf cycles and  25 bfgs steps
     (criteria: energy <  1.0E-04, force <  1.0E-03)

     End of BFGS Geometry Optimization

     Final energy   =    -329.4907743228 Ry
Begin final coordinates

ATOMIC_POSITIONS (bohr)
Au      -2.017736336   1.877926850  -0.671987098
Au      -0.830416637   3.243723867   4.182139162
Au       2.868244129   1.857756589   0.553895574
Au       4.121278309   3.319463270   5.705211496
Au       7.626263535   1.899017425   2.228562866
End final coordinates

     Writing output data file pwscf.save

     General routines

     Parallel routines

   This run was terminated on:  15:44: 7   3Aug2017

   JOB DONE.