     Program PWSCF v.6.0 (svn rev. 13079) starts on  4Aug2017 at  7: 7:20

     Current dimensions of program PWSCF are:
     Max number of different atomic species (ntypx) = 10
     Max number of k-points (npk) =  40000
     Max angular momentum in pseudopotentials (lmaxx) =  3
     Message from routine iosys:
     pot_extrapolation='second-order' not available, using 'atomic'
     Message from routine iosys:
     wfc_extrapolation='second-order' not available, using 'atomic'

     Subspace diagonalization in iterative solution of the eigenvalue problem:
     a serial algorithm will be used

     bravais-lattice index     =            1
     lattice parameter (alat)  =      20.0000  a.u.
     unit-cell volume          =    8000.0000 (a.u.)^3
     number of atoms/cell      =            5
     number of atomic types    =            1
     number of electrons       =        55.00
     number of Kohn-Sham states=           34
     kinetic-energy cutoff     =      30.0000  Ry
     charge density cutoff     =     120.0000  Ry
     convergence threshold     =      1.0E-08
     mixing beta               =       0.7000
     number of iterations used =            8  plain     mixing
     Exchange-correlation      = BLYP ( 1  3  1  3 0 0)
     nstep                     =           50

     celldm(1)=  20.000000  celldm(2)=   0.000000  celldm(3)=   0.000000
     celldm(4)=   0.000000  celldm(5)=   0.000000  celldm(6)=   0.000000

     crystal axes: (cart. coord. in units of alat)
               a(1) = (   1.000000   0.000000   0.000000 )
               a(2) = (   0.000000   1.000000   0.000000 )
               a(3) = (   0.000000   0.000000   1.000000 )

     reciprocal axes: (cart. coord. in units 2 pi/alat)
               b(1) = (  1.000000  0.000000  0.000000 )
               b(2) = (  0.000000  1.000000  0.000000 )
               b(3) = (  0.000000  0.000000  1.000000 )

     PseudoPot. # 1 for Au read from file:
     ./Au.blyp-d-hgh.UPF
     MD5 check sum: c10d8bae01f806c36a1643a1c69a8479
     Pseudo is Norm-conserving, Zval = 11.0
     Generated in analytical, separable form
     Using radial grid of 1279 points,  6 beta functions with:
                l(1) =   0
                l(2) =   0
                l(3) =   1
                l(4) =   1
                l(5) =   2
                l(6) =   2

     atomic species   valence    mass     pseudopotential
        Au            11.00    28.08600     Au( 1.00)

     No symmetry found

   Cartesian axes

     site n.     atom                  positions (alat units)
         1           Au  tau(   1) = (  -0.0526416   0.0083488   0.0237565  )
         2           Au  tau(   2) = (  -0.0185323   0.1866781   0.2076411  )
         3           Au  tau(   3) = (   0.1626954  -0.1255499  -0.0489171  )
         4           Au  tau(   4) = (   0.2376307   0.2295696   0.2501848  )
         5           Au  tau(   5) = (   0.1549351  -0.0084704   0.1822046  )

     number of k points=     1  Marzari-Vanderbilt smearing, width (Ry)=  0.0250
                       cart. coord. in units 2pi/alat
        k(    1) = (   0.0000000   0.0000000   0.0000000), wk =   2.0000000

     Initial potential from superposition of free atoms
     Check: negative starting charge=   -0.005902

     starting charge   54.99940, renormalised to   55.00000

     negative rho (up, down):  5.902E-03 0.000E+00
     Starting wfc are   45 randomized atomic wfcs

     Self-consistent Calculation

     iteration #  1     ecut=    30.00 Ry     beta=0.70
     Davidson diagonalization with overlap
     ethr =  1.00E-02,  avg # of iterations =  3.0

     Threshold (ethr) on eigenvalues was too large:
     Diagonalizing with lowered threshold

     Davidson diagonalization with overlap
     ethr =  3.39E-04,  avg # of iterations =  3.0

     negative rho (up, down):  7.642E-04 0.000E+00

     total energy              =    -329.37505628 Ry
     Harris-Foulkes estimate   =    -329.51830882 Ry
     estimated scf accuracy    <       0.24397841 Ry

[...]

     End of self-consistent calculation

          k = 0.0000 0.0000 0.0000 ( 22119 PWs)   bands (ev):

    -8.2814  -7.7076  -7.6820  -7.1003  -6.9342  -6.8283  -6.5963  -6.4903
    -6.2766  -6.0024  -5.9826  -5.6432  -5.5644  -5.4982  -5.4872  -5.3565
    -5.2968  -5.2051  -5.1608  -5.0910  -5.0593  -5.0355  -4.9960  -4.8594
    -4.7858  -4.5987  -4.3683  -3.7487  -2.5519  -2.2199  -0.4519  -0.1201
     0.1451   0.6763

     the Fermi energy is    -3.7309 ev

!    total energy              =    -329.46709519 Ry
     Harris-Foulkes estimate   =    -329.46709520 Ry
     estimated scf accuracy    <          3.2E-09 Ry

     The total energy is the sum of the following terms:

     one-electron contribution =    -602.42785137 Ry
     hartree contribution      =     322.75890821 Ry
     xc contribution           =     -51.39482047 Ry
     ewald contribution        =       1.59775960 Ry
     smearing contrib. (-TS)   =      -0.00109116 Ry

     convergence has been achieved in  12 iterations

     Forces acting on atoms (Ry/au):

     atom    1 type  1   force =    -0.00119708   -0.00881548   -0.01114404
     atom    2 type  1   force =     0.00488142    0.01310947    0.00709506
     atom    3 type  1   force =    -0.00988995    0.00055285    0.01081231
     atom    4 type  1   force =    -0.01428064   -0.00971059    0.00519945
     atom    5 type  1   force =     0.02048625    0.00486375   -0.01196277

     Total force =     0.039700     Total SCF correction =     0.000307

     BFGS Geometry Optimization

     number of scf cycles    =   1
     number of bfgs steps    =   0

     energy   new            =    -329.4670951923 Ry

     new trust radius        =       0.0242167353 bohr
     new conv_thr            =       0.0000000100 Ry

ATOMIC_POSITIONS (bohr)
Au      -1.054029075   0.158159517   0.463985955
Au      -0.365764583   3.746671471   4.159917058
Au       3.244018051  -2.510445153  -0.967529692
Au       4.738333362   4.581681411   5.008895450
Au       3.119188246  -0.164544247   3.632130228

     Writing output data file pwscf.save
     Check: negative starting charge=   -0.005902
     NEW-OLD atomic charge density approx. for the potential
     Check: negative starting charge=   -0.005913

[...]

     energy   old            =    -329.4670951923 Ry
     energy   new            =    -329.4685592164 Ry

     CASE: energy  _new < energy  _old

     WARNING: bfgs curvature condition failed, Theta= 0.931
     new trust radius        =       0.0266384089 bohr
     new conv_thr            =       0.0000000015 Ry

[...]

     WARNING: bfgs curvature condition failed, Theta= 0.856
     new trust radius        =       0.1094137625 bohr
     new conv_thr            =       0.0000000014 Ry

[...]

     iteration #  1     ecut=    30.00 Ry     beta=0.70
     Davidson diagonalization with overlap
     c_bands:  1 eigenvalues not converged
     ethr =  1.00E-06,  avg # of iterations = 20.0

[...]

     number of scf cycles    =  34
     number of bfgs steps    =  33

     energy   old            =    -329.4951215311 Ry
     energy   new            =    -329.4951346721 Ry

     CASE: energy  _new < energy  _old

     new trust radius        =       0.0055353415 bohr
     new conv_thr            =            1.0E-10 Ry

ATOMIC_POSITIONS (bohr)
Au      -1.135390136   0.048243744   0.523451453
Au      -0.286866015   3.842082271   3.930336007
Au       2.791374758  -3.080007715  -0.674837912
Au       4.447776360   4.407942953   5.898337594
Au       3.864851032   0.593261746   2.620111859

     Writing output data file pwscf.save
     Check: negative starting charge=   -0.005846
     NEW-OLD atomic charge density approx. for the potential
     Check: negative starting charge=   -0.005845

     negative rho (up, down):  4.066E-07 0.000E+00

     Self-consistent Calculation

[...]

     Threshold (ethr) on eigenvalues was too large:
     Diagonalizing with lowered threshold

     Davidson diagonalization with overlap
     ethr =  1.25E-08,  avg # of iterations =  1.0

[...]

     total energy              =    -329.49513959 Ry
     Harris-Foulkes estimate   =    -329.49513961 Ry
     estimated scf accuracy    <          2.5E-10 Ry

     iteration #  9     ecut=    30.00 Ry     beta=0.70
     Davidson diagonalization with overlap
     ethr =  4.46E-13,  avg # of iterations =  2.0

     End of self-consistent calculation

          k = 0.0000 0.0000 0.0000 ( 22119 PWs)   bands (ev):

    -8.4834  -7.7646  -7.6440  -7.2304  -6.8488  -6.7970  -6.6089  -6.4682
    -6.3089  -6.0559  -5.9459  -5.7566  -5.7168  -5.6729  -5.4453  -5.3517
    -5.3092  -5.2387  -5.1907  -5.1698  -5.1680  -5.1135  -4.9903  -4.9109
    -4.8319  -4.7333  -4.4740  -3.7647  -2.3824  -2.1755  -0.4962  -0.2063
     0.3899   0.6454

     the Fermi energy is    -3.7309 ev

!    total energy              =    -329.49513959 Ry
     Harris-Foulkes estimate   =    -329.49513959 Ry
     estimated scf accuracy    <          2.0E-11 Ry

     The total energy is the sum of the following terms:

     one-electron contribution =    -600.84776365 Ry
     hartree contribution      =     321.87317046 Ry
     xc contribution           =     -51.39591155 Ry
     ewald contribution        =       0.88000618 Ry
     smearing contrib. (-TS)   =      -0.00464103 Ry

     convergence has been achieved in   9 iterations

     Forces acting on atoms (Ry/au):

     atom    1 type  1   force =     0.00014039   -0.00012104   -0.00052605
     atom    2 type  1   force =     0.00009924   -0.00038828    0.00045273
     atom    3 type  1   force =    -0.00025912    0.00019615   -0.00025799
     atom    4 type  1   force =    -0.00004056   -0.00025841    0.00002448
     atom    5 type  1   force =     0.00006005    0.00057158    0.00030683

     Total force =     0.001159     Total SCF correction =     0.000013

     bfgs converged in  35 scf cycles and  34 bfgs steps
     (criteria: energy <  1.0E-04, force <  1.0E-03)

     End of BFGS Geometry Optimization

     Final energy   =    -329.4951395887 Ry
Begin final coordinates

ATOMIC_POSITIONS (bohr)
Au      -1.135390136   0.048243744   0.523451453
Au      -0.286866015   3.842082271   3.930336007
Au       2.791374758  -3.080007715  -0.674837912
Au       4.447776360   4.407942953   5.898337594
Au       3.864851032   0.593261746   2.620111859
End final coordinates

     Writing output data file pwscf.save

     General routines

     Parallel routines

   This run was terminated on:   7: 8:52   4Aug2017

   JOB DONE.