     Program PWSCF v.6.0 (svn rev. 13079) starts on  4Aug2017 at  6: 6:48

     Current dimensions of program PWSCF are:
     Max number of different atomic species (ntypx) = 10
     Max number of k-points (npk) =  40000
     Max angular momentum in pseudopotentials (lmaxx) =  3
     Message from routine iosys:
     pot_extrapolation='second-order' not available, using 'atomic'
     Message from routine iosys:
     wfc_extrapolation='second-order' not available, using 'atomic'

     Subspace diagonalization in iterative solution of the eigenvalue problem:
     a serial algorithm will be used

     bravais-lattice index     =            1
     lattice parameter (alat)  =      20.0000  a.u.
     unit-cell volume          =    8000.0000 (a.u.)^3
     number of atoms/cell      =            5
     number of atomic types    =            1
     number of electrons       =        55.00
     number of Kohn-Sham states=           34
     kinetic-energy cutoff     =      30.0000  Ry
     charge density cutoff     =     120.0000  Ry
     convergence threshold     =      1.0E-08
     mixing beta               =       0.7000
     number of iterations used =            8  plain     mixing
     Exchange-correlation      = BLYP ( 1  3  1  3 0 0)
     nstep                     =           50

     celldm(1)=  20.000000  celldm(2)=   0.000000  celldm(3)=   0.000000
     celldm(4)=   0.000000  celldm(5)=   0.000000  celldm(6)=   0.000000

     crystal axes: (cart. coord. in units of alat)
               a(1) = (   1.000000   0.000000   0.000000 )
               a(2) = (   0.000000   1.000000   0.000000 )
               a(3) = (   0.000000   0.000000   1.000000 )

     reciprocal axes: (cart. coord. in units 2 pi/alat)
               b(1) = (  1.000000  0.000000  0.000000 )
               b(2) = (  0.000000  1.000000  0.000000 )
               b(3) = (  0.000000  0.000000  1.000000 )

     PseudoPot. # 1 for Au read from file:
     ./Au.blyp-d-hgh.UPF
     MD5 check sum: c10d8bae01f806c36a1643a1c69a8479
     Pseudo is Norm-conserving, Zval = 11.0
     Generated in analytical, separable form
     Using radial grid of 1279 points,  6 beta functions with:
                l(1) =   0
                l(2) =   0
                l(3) =   1
                l(4) =   1
                l(5) =   2
                l(6) =   2

     atomic species   valence    mass     pseudopotential
        Au            11.00    28.08600     Au( 1.00)

     No symmetry found

   Cartesian axes

     site n.     atom                  positions (alat units)
         1           Au  tau(   1) = (   0.3819168   0.0549930   0.0211036  )
         2           Au  tau(   2) = (   0.0173545   0.1452786   0.1770637  )
         3           Au  tau(   3) = (   0.1735828   0.1482677  -0.0362681  )
         4           Au  tau(   4) = (   0.2291809   0.2338791   0.2217424  )
         5           Au  tau(   5) = (   0.2143555  -0.0019782   0.1738384  )

     number of k points=     1  Marzari-Vanderbilt smearing, width (Ry)=  0.0250
                       cart. coord. in units 2pi/alat
        k(    1) = (   0.0000000   0.0000000   0.0000000), wk =   2.0000000

     Initial potential from superposition of free atoms
     Check: negative starting charge=   -0.006847

     starting charge   54.99940, renormalised to   55.00000

     negative rho (up, down):  6.847E-03 0.000E+00
     Starting wfc are   45 randomized atomic wfcs

     Self-consistent Calculation

     iteration #  1     ecut=    30.00 Ry     beta=0.70
     Davidson diagonalization with overlap
     ethr =  1.00E-02,  avg # of iterations =  5.0

     Threshold (ethr) on eigenvalues was too large:
     Diagonalizing with lowered threshold

     Davidson diagonalization with overlap
     ethr =  3.93E-04,  avg # of iterations =  4.0

     negative rho (up, down):  8.010E-04 0.000E+00

     total energy              =    -329.22699738 Ry
     Harris-Foulkes estimate   =    -329.39179946 Ry
     estimated scf accuracy    <       0.27357643 Ry

[...]

     End of self-consistent calculation

          k = 0.0000 0.0000 0.0000 ( 22119 PWs)   bands (ev):

    -9.6102  -8.7776  -8.0667  -7.8660  -7.8204  -7.6787  -7.3825  -7.0701
    -6.9660  -6.6223  -6.5094  -6.1523  -5.9100  -5.8226  -5.5397  -5.5018
    -5.4678  -5.3559  -5.2449  -5.1010  -5.0070  -4.9026  -4.8475  -4.8241
    -4.5605  -4.3940  -3.9590  -3.1922  -3.0035  -1.8927  -0.1949   0.0690
     0.3221   0.6588

     the Fermi energy is    -3.2075 ev

!    total energy              =    -329.33155532 Ry
     Harris-Foulkes estimate   =    -329.33155536 Ry
     estimated scf accuracy    <          4.7E-10 Ry

     The total energy is the sum of the following terms:

     one-electron contribution =    -695.45658395 Ry
     hartree contribution      =     368.80824517 Ry
     xc contribution           =     -51.64069444 Ry
     ewald contribution        =      48.96756026 Ry
     smearing contrib. (-TS)   =      -0.01008236 Ry

     convergence has been achieved in  14 iterations

     Forces acting on atoms (Ry/au):

     atom    1 type  1   force =     0.16007891   -0.01794868   -0.05426428
     atom    2 type  1   force =    -0.15019843   -0.00494116   -0.00481346
     atom    3 type  1   force =    -0.07565809    0.04562515   -0.06490128
     atom    4 type  1   force =     0.09394764    0.11212769    0.05112611
     atom    5 type  1   force =    -0.02817002   -0.13486300    0.07285291

     Total force =     0.334393     Total SCF correction =     0.000066

     BFGS Geometry Optimization

     number of scf cycles    =   1
     number of bfgs steps    =   0

     energy   new            =    -329.3315553231 Ry

     new trust radius        =       0.1699765386 bohr
     new conv_thr            =       0.0000000100 Ry

ATOMIC_POSITIONS (bohr)
Au       7.798415908   1.081911317   0.367807725
Au       0.196890574   2.900629840   3.536460540
Au       3.395996906   3.010978154  -0.790262281
Au       4.677564635   4.789709687   4.485975108
Au       4.258939977  -0.174427998   3.549620909

     Writing output data file pwscf.save
     Check: negative starting charge=   -0.006847
     NEW-OLD atomic charge density approx. for the potential
     Check: negative starting charge=   -0.006416

[...]

     energy   old            =    -329.3315553231 Ry
     energy   new            =    -329.4017956619 Ry

     CASE: energy  _new < energy  _old

[...]

     WARNING: bfgs curvature condition failed, Theta= 0.390
     new trust radius        =       0.2820486498 bohr
     new conv_thr            =       0.0000000018 Ry

[...]

     WARNING: bfgs curvature condition failed, Theta= 0.866
     new trust radius        =       0.1444698707 bohr
     new conv_thr            =       0.0000000025 Ry

[...]

     Threshold (ethr) on eigenvalues was too large:
     Diagonalizing with lowered threshold

     Davidson diagonalization with overlap
     ethr =  9.01E-08,  avg # of iterations =  1.0

[...]

     Self-consistent Calculation

[...]

     total energy              =    -329.49365599 Ry
     Harris-Foulkes estimate   =    -329.49365600 Ry
     estimated scf accuracy    <          1.3E-09 Ry

     iteration # 10     ecut=    30.00 Ry     beta=0.70
     Davidson diagonalization with overlap
     ethr =  2.33E-12,  avg # of iterations =  2.0

     End of self-consistent calculation

          k = 0.0000 0.0000 0.0000 ( 22119 PWs)   bands (ev):

    -8.4751  -7.7562  -7.6514  -7.2311  -6.8597  -6.7892  -6.5997  -6.4672
    -6.3114  -6.0548  -5.9439  -5.7594  -5.7159  -5.6745  -5.4432  -5.3626
    -5.3123  -5.2379  -5.1988  -5.1734  -5.1655  -5.1178  -4.9943  -4.9170
    -4.8375  -4.7288  -4.4728  -3.7657  -2.4019  -2.2094  -0.5129  -0.1900
     0.3966   0.6894

     the Fermi energy is    -3.7322 ev

!    total energy              =    -329.49365602 Ry
     Harris-Foulkes estimate   =    -329.49365599 Ry
     estimated scf accuracy    <          6.2E-11 Ry

     The total energy is the sum of the following terms:

     one-electron contribution =    -603.00836299 Ry
     hartree contribution      =     322.95157851 Ry
     xc contribution           =     -51.39567603 Ry
     ewald contribution        =       1.96338040 Ry
     smearing contrib. (-TS)   =      -0.00457591 Ry

     convergence has been achieved in  10 iterations

     Forces acting on atoms (Ry/au):

     atom    1 type  1   force =    -0.00141996    0.00028592    0.00136024
     atom    2 type  1   force =     0.00016488    0.00042699    0.00178166
     atom    3 type  1   force =     0.00147362   -0.00024323   -0.00066298
     atom    4 type  1   force =    -0.00149074    0.00060308   -0.00128294
     atom    5 type  1   force =     0.00127220   -0.00107276   -0.00119598

     Total force =     0.004293     Total SCF correction =     0.000036

     number of scf cycles    =  50
     number of bfgs steps    =  49

     energy   old            =    -329.4935944936 Ry
     energy   new            =    -329.4936560194 Ry

     CASE: energy  _new < energy  _old

     new trust radius        =       0.0146161290 bohr
     new conv_thr            =            1.0E-10 Ry

ATOMIC_POSITIONS (bohr)
Au       7.215409821  -0.517259890  -1.057740539
Au      -0.737966285   4.634048303   2.455065929
Au       3.078130948   1.950799971   0.503750428
Au       3.316321638   3.974071433   5.590024617
Au       7.455911879   1.567141183   3.658501565

     Writing output data file pwscf.save
     Check: negative starting charge=   -0.006134
     NEW-OLD atomic charge density approx. for the potential
     Check: negative starting charge=   -0.006126

     negative rho (up, down):  1.996E-05 0.000E+00

     Writing output data file pwscf.save

     General routines

     Parallel routines

   This run was terminated on:   6: 9:18   4Aug2017

   JOB DONE.