     Program PWSCF v.6.0 (svn rev. 13079) starts on  3Aug2017 at 21:28:32

     Current dimensions of program PWSCF are:
     Max number of different atomic species (ntypx) = 10
     Max number of k-points (npk) =  40000
     Max angular momentum in pseudopotentials (lmaxx) =  3
     Message from routine iosys:
     pot_extrapolation='second-order' not available, using 'atomic'
     Message from routine iosys:
     wfc_extrapolation='second-order' not available, using 'atomic'

     Subspace diagonalization in iterative solution of the eigenvalue problem:
     a serial algorithm will be used

     bravais-lattice index     =            1
     lattice parameter (alat)  =      20.0000  a.u.
     unit-cell volume          =    8000.0000 (a.u.)^3
     number of atoms/cell      =            5
     number of atomic types    =            1
     number of electrons       =        55.00
     number of Kohn-Sham states=           34
     kinetic-energy cutoff     =      30.0000  Ry
     charge density cutoff     =     120.0000  Ry
     convergence threshold     =      1.0E-08
     mixing beta               =       0.7000
     number of iterations used =            8  plain     mixing
     Exchange-correlation      = BLYP ( 1  3  1  3 0 0)
     nstep                     =           50

     celldm(1)=  20.000000  celldm(2)=   0.000000  celldm(3)=   0.000000
     celldm(4)=   0.000000  celldm(5)=   0.000000  celldm(6)=   0.000000

     crystal axes: (cart. coord. in units of alat)
               a(1) = (   1.000000   0.000000   0.000000 )
               a(2) = (   0.000000   1.000000   0.000000 )
               a(3) = (   0.000000   0.000000   1.000000 )

     reciprocal axes: (cart. coord. in units 2 pi/alat)
               b(1) = (  1.000000  0.000000  0.000000 )
               b(2) = (  0.000000  1.000000  0.000000 )
               b(3) = (  0.000000  0.000000  1.000000 )

     PseudoPot. # 1 for Au read from file:
     ./Au.blyp-d-hgh.UPF
     MD5 check sum: c10d8bae01f806c36a1643a1c69a8479
     Pseudo is Norm-conserving, Zval = 11.0
     Generated in analytical, separable form
     Using radial grid of 1279 points,  6 beta functions with:
                l(1) =   0
                l(2) =   0
                l(3) =   1
                l(4) =   1
                l(5) =   2
                l(6) =   2

     atomic species   valence    mass     pseudopotential
        Au            11.00    28.08600     Au( 1.00)

     No symmetry found

   Cartesian axes

     site n.     atom                  positions (alat units)
         1           Au  tau(   1) = (  -0.1060387   0.1438330  -0.0247829  )
         2           Au  tau(   2) = (  -0.0016658   0.1288900   0.2089672  )
         3           Au  tau(   3) = (   0.1453447   0.1045203  -0.0013324  )
         4           Au  tau(   4) = (   0.2260140   0.2101077   0.2803427  )
         5           Au  tau(   5) = (   0.3562959   0.0553717   0.1169564  )

     number of k points=     1  Marzari-Vanderbilt smearing, width (Ry)=  0.0250
                       cart. coord. in units 2pi/alat
        k(    1) = (   0.0000000   0.0000000   0.0000000), wk =   2.0000000

     Initial potential from superposition of free atoms
     Check: negative starting charge=   -0.006283

     starting charge   54.99940, renormalised to   55.00000

     negative rho (up, down):  6.284E-03 0.000E+00
     Starting wfc are   45 randomized atomic wfcs

     Self-consistent Calculation

     iteration #  1     ecut=    30.00 Ry     beta=0.70
     Davidson diagonalization with overlap
     ethr =  1.00E-02,  avg # of iterations =  3.0

     Threshold (ethr) on eigenvalues was too large:
     Diagonalizing with lowered threshold

     Davidson diagonalization with overlap
     ethr =  3.86E-04,  avg # of iterations =  8.0

     negative rho (up, down):  8.449E-04 0.000E+00

     total energy              =    -329.36833053 Ry
     Harris-Foulkes estimate   =    -329.53008985 Ry
     estimated scf accuracy    <       0.27135875 Ry

[...]

     End of self-consistent calculation

          k = 0.0000 0.0000 0.0000 ( 22119 PWs)   bands (ev):

    -8.3456  -7.7314  -7.6220  -7.2917  -7.0526  -6.7218  -6.7152  -6.5141
    -6.2047  -6.0126  -5.9222  -5.7504  -5.6499  -5.5845  -5.5636  -5.4636
    -5.2164  -5.2104  -5.1597  -5.1491  -5.1335  -5.0138  -4.9471  -4.9076
    -4.8709  -4.4639  -4.3803  -3.7243  -2.4389  -2.2543  -0.3790  -0.1867
     0.3996   0.6701

     the Fermi energy is    -3.7091 ev

!    total energy              =    -329.47508113 Ry
     Harris-Foulkes estimate   =    -329.47508116 Ry
     estimated scf accuracy    <          2.7E-09 Ry

     The total energy is the sum of the following terms:

     one-electron contribution =    -611.99188685 Ry
     hartree contribution      =     327.51041434 Ry
     xc contribution           =     -51.42501569 Ry
     ewald contribution        =       6.43171071 Ry
     smearing contrib. (-TS)   =      -0.00030364 Ry

     convergence has been achieved in  12 iterations

     Forces acting on atoms (Ry/au):

     atom    1 type  1   force =    -0.00168841   -0.00333122   -0.00448515
     atom    2 type  1   force =    -0.01423879    0.00569539    0.00418183
     atom    3 type  1   force =    -0.01265043    0.00216655   -0.00926772
     atom    4 type  1   force =     0.01119410   -0.00752589   -0.00023479
     atom    5 type  1   force =     0.01738354    0.00299517    0.00980584

     Total force =     0.033566     Total SCF correction =     0.000179

     BFGS Geometry Optimization

     number of scf cycles    =   1
     number of bfgs steps    =   0

     energy   new            =    -329.4750811295 Ry

     new trust radius        =       0.0201819902 bohr
     new conv_thr            =       0.0000000100 Ry

ATOMIC_POSITIONS (bohr)
Au      -2.122462414   2.873328782  -0.500142151
Au      -0.047554795   2.583494392   4.183524832
Au       2.894244571   2.092572554  -0.035916721
Au       4.531474102   4.194627105   5.606619205
Au       7.143300535   1.110429167   2.348932836

     Writing output data file pwscf.save
     Check: negative starting charge=   -0.006283
     NEW-OLD atomic charge density approx. for the potential
     Check: negative starting charge=   -0.006287

[...]

     energy   old            =    -329.4750811295 Ry
     energy   new            =    -329.4760654221 Ry

     CASE: energy  _new < energy  _old

[...]

     iteration #  1     ecut=    30.00 Ry     beta=0.70
     Davidson diagonalization with overlap
     c_bands:  1 eigenvalues not converged
     ethr =  1.00E-06,  avg # of iterations = 20.0

[...]

     iteration #  1     ecut=    30.00 Ry     beta=0.70
     Davidson diagonalization with overlap
     c_bands:  1 eigenvalues not converged
     ethr =  1.00E-06,  avg # of iterations = 20.0

[...]

     number of scf cycles    =  32
     number of bfgs steps    =  31

     energy   old            =    -329.4915117284 Ry
     energy   new            =    -329.4915231376 Ry

     CASE: energy  _new < energy  _old

     new trust radius        =       0.0061349213 bohr
     new conv_thr            =            1.0E-10 Ry

ATOMIC_POSITIONS (bohr)
Au      -1.998781467   2.513717299  -0.609469252
Au      -0.586544620   3.811929190   4.179388767
Au       2.885294265   1.894378979   0.513478875
Au       4.413369284   3.275392556   5.511493262
Au       7.685664538   1.359033976   2.008126348

     Writing output data file pwscf.save
     Check: negative starting charge=   -0.006519
     NEW-OLD atomic charge density approx. for the potential
     Check: negative starting charge=   -0.006517

     negative rho (up, down):  8.295E-07 0.000E+00

     Self-consistent Calculation

[...]

     Threshold (ethr) on eigenvalues was too large:
     Diagonalizing with lowered threshold

     Davidson diagonalization with overlap
     ethr =  1.49E-08,  avg # of iterations =  2.0

[...]

     total energy              =    -329.49153206 Ry
     Harris-Foulkes estimate   =    -329.49153210 Ry
     estimated scf accuracy    <          2.2E-10 Ry

     iteration #  9     ecut=    30.00 Ry     beta=0.70
     Davidson diagonalization with overlap
     ethr =  3.94E-13,  avg # of iterations =  2.0

     End of self-consistent calculation

          k = 0.0000 0.0000 0.0000 ( 22119 PWs)   bands (ev):

    -8.5280  -7.8019  -7.6608  -7.2410  -6.8306  -6.8237  -6.6195  -6.4955
    -6.3052  -6.0880  -5.9537  -5.7730  -5.7327  -5.6878  -5.4749  -5.3528
    -5.3102  -5.2569  -5.1975  -5.1787  -5.1755  -5.1210  -5.0043  -4.9291
    -4.8273  -4.7389  -4.4898  -3.7807  -2.5074  -2.1855  -0.5650  -0.2077
     0.5651   0.8732

     the Fermi energy is    -3.7471 ev

!    total energy              =    -329.49153206 Ry
     Harris-Foulkes estimate   =    -329.49153206 Ry
     estimated scf accuracy    <          2.1E-11 Ry

     The total energy is the sum of the following terms:

     one-electron contribution =    -609.68931391 Ry
     hartree contribution      =     326.27091175 Ry
     xc contribution           =     -51.40266607 Ry
     ewald contribution        =       5.33410721 Ry
     smearing contrib. (-TS)   =      -0.00457104 Ry

     convergence has been achieved in   9 iterations

     Forces acting on atoms (Ry/au):

     atom    1 type  1   force =    -0.00036587   -0.00013673   -0.00098598
     atom    2 type  1   force =     0.00095687    0.00049418    0.00083509
     atom    3 type  1   force =     0.00010519    0.00014120   -0.00030455
     atom    4 type  1   force =    -0.00024037   -0.00023186    0.00068441
     atom    5 type  1   force =    -0.00045582   -0.00026680   -0.00022897

     Total force =     0.002004     Total SCF correction =     0.000021

     bfgs converged in  33 scf cycles and  32 bfgs steps
     (criteria: energy <  1.0E-04, force <  1.0E-03)

     End of BFGS Geometry Optimization

     Final energy   =    -329.4915320646 Ry
Begin final coordinates

ATOMIC_POSITIONS (bohr)
Au      -1.998781467   2.513717299  -0.609469252
Au      -0.586544620   3.811929190   4.179388767
Au       2.885294265   1.894378979   0.513478875
Au       4.413369284   3.275392556   5.511493262
Au       7.685664538   1.359033976   2.008126348
End final coordinates

     Writing output data file pwscf.save

     General routines

     Parallel routines

   This run was terminated on:  21:30: 0   3Aug2017

   JOB DONE.