     Program PWSCF v.6.0 (svn rev. 13079) starts on  4Aug2017 at  5:46:18

     Current dimensions of program PWSCF are:
     Max number of different atomic species (ntypx) = 10
     Max number of k-points (npk) =  40000
     Max angular momentum in pseudopotentials (lmaxx) =  3
     Message from routine iosys:
     pot_extrapolation='second-order' not available, using 'atomic'
     Message from routine iosys:
     wfc_extrapolation='second-order' not available, using 'atomic'

     Subspace diagonalization in iterative solution of the eigenvalue problem:
     a serial algorithm will be used

     bravais-lattice index     =            1
     lattice parameter (alat)  =      20.0000  a.u.
     unit-cell volume          =    8000.0000 (a.u.)^3
     number of atoms/cell      =            5
     number of atomic types    =            1
     number of electrons       =        55.00
     number of Kohn-Sham states=           34
     kinetic-energy cutoff     =      30.0000  Ry
     charge density cutoff     =     120.0000  Ry
     convergence threshold     =      1.0E-08
     mixing beta               =       0.7000
     number of iterations used =            8  plain     mixing
     Exchange-correlation      = BLYP ( 1  3  1  3 0 0)
     nstep                     =           50

     celldm(1)=  20.000000  celldm(2)=   0.000000  celldm(3)=   0.000000
     celldm(4)=   0.000000  celldm(5)=   0.000000  celldm(6)=   0.000000

     crystal axes: (cart. coord. in units of alat)
               a(1) = (   1.000000   0.000000   0.000000 )
               a(2) = (   0.000000   1.000000   0.000000 )
               a(3) = (   0.000000   0.000000   1.000000 )

     reciprocal axes: (cart. coord. in units 2 pi/alat)
               b(1) = (  1.000000  0.000000  0.000000 )
               b(2) = (  0.000000  1.000000  0.000000 )
               b(3) = (  0.000000  0.000000  1.000000 )

     PseudoPot. # 1 for Au read from file:
     ./Au.blyp-d-hgh.UPF
     MD5 check sum: c10d8bae01f806c36a1643a1c69a8479
     Pseudo is Norm-conserving, Zval = 11.0
     Generated in analytical, separable form
     Using radial grid of 1279 points,  6 beta functions with:
                l(1) =   0
                l(2) =   0
                l(3) =   1
                l(4) =   1
                l(5) =   2
                l(6) =   2

     atomic species   valence    mass     pseudopotential
        Au            11.00    28.08600     Au( 1.00)

     No symmetry found

   Cartesian axes

     site n.     atom                  positions (alat units)
         1           Au  tau(   1) = (  -0.1053212   0.0176268   0.0628471  )
         2           Au  tau(   2) = (   0.0582194   0.1365482   0.1983972  )
         3           Au  tau(   3) = (   0.1557517   0.1788157  -0.0385489  )
         4           Au  tau(   4) = (   0.2439075   0.2327166   0.2412080  )
         5           Au  tau(   5) = (   0.2474837  -0.0026328   0.1742303  )

     number of k points=     1  Marzari-Vanderbilt smearing, width (Ry)=  0.0250
                       cart. coord. in units 2pi/alat
        k(    1) = (   0.0000000   0.0000000   0.0000000), wk =   2.0000000

     Initial potential from superposition of free atoms
     Check: negative starting charge=   -0.006308

     starting charge   54.99940, renormalised to   55.00000

     negative rho (up, down):  6.308E-03 0.000E+00
     Starting wfc are   45 randomized atomic wfcs

     Self-consistent Calculation

     iteration #  1     ecut=    30.00 Ry     beta=0.70
     Davidson diagonalization with overlap
     ethr =  1.00E-02,  avg # of iterations =  3.0

     Threshold (ethr) on eigenvalues was too large:
     Diagonalizing with lowered threshold

     Davidson diagonalization with overlap
     ethr =  7.07E-04,  avg # of iterations =  3.0

     negative rho (up, down):  7.549E-04 0.000E+00

     total energy              =    -329.06573346 Ry
     Harris-Foulkes estimate   =    -329.35054706 Ry
     estimated scf accuracy    <       0.42905530 Ry

[...]

     End of self-consistent calculation

          k = 0.0000 0.0000 0.0000 ( 22119 PWs)   bands (ev):

   -10.0384  -9.0618  -8.5156  -7.9279  -7.6352  -7.2675  -7.1887  -6.5062
    -6.2326  -5.9842  -5.9342  -5.7336  -5.7231  -5.6054  -5.5373  -5.3887
    -5.3587  -5.3280  -5.2965  -5.0353  -4.8888  -4.7317  -4.6692  -4.6228
    -4.5670  -4.1840  -4.1607  -3.4720  -3.2791  -1.8148  -0.2469   0.0933
     0.4201   0.6011

     the Fermi energy is    -3.5123 ev

!    total energy              =    -329.27010483 Ry
     Harris-Foulkes estimate   =    -329.27010486 Ry
     estimated scf accuracy    <          1.3E-09 Ry

     The total energy is the sum of the following terms:

     one-electron contribution =    -650.23082082 Ry
     hartree contribution      =     346.42580491 Ry
     xc contribution           =     -51.59531959 Ry
     ewald contribution        =      26.13152795 Ry
     smearing contrib. (-TS)   =      -0.00129727 Ry

     convergence has been achieved in  16 iterations

     Forces acting on atoms (Ry/au):

     atom    1 type  1   force =    -0.01509311   -0.00609574   -0.01711774
     atom    2 type  1   force =    -0.35590254   -0.09274635   -0.04712909
     atom    3 type  1   force =    -0.00771760   -0.00927529   -0.00109552
     atom    4 type  1   force =     0.29930136    0.19923717    0.08697917
     atom    5 type  1   force =     0.07941189   -0.09111979   -0.02163682

     Total force =     0.538622     Total SCF correction =     0.000172

     BFGS Geometry Optimization

     number of scf cycles    =   1
     number of bfgs steps    =   0

     energy   new            =    -329.2701048291 Ry

     new trust radius        =       0.3707959721 bohr
     new conv_thr            =       0.0000000100 Ry

ATOMIC_POSITIONS (bohr)
Au      -2.121517107   0.346439261   1.239823262
Au       0.808485463   2.638216648   3.920815907
Au       3.107316396   3.567039709  -0.772074524
Au       5.177451360   4.853569172   4.911139173
Au       5.029085888  -0.143774790   3.462969182

     Writing output data file pwscf.save
     Check: negative starting charge=   -0.006308
     NEW-OLD atomic charge density approx. for the potential
     Check: negative starting charge=   -0.006094

[...]

     energy   old            =    -329.2701048291 Ry
     energy   new            =    -329.3800428096 Ry

     CASE: energy  _new < energy  _old

[...]

     iteration #  1     ecut=    30.00 Ry     beta=0.70
     Davidson diagonalization with overlap
     c_bands:  1 eigenvalues not converged
     ethr =  1.00E-06,  avg # of iterations = 20.0

[...]

     iteration #  1     ecut=    30.00 Ry     beta=0.70
     Davidson diagonalization with overlap
     c_bands:  1 eigenvalues not converged
     ethr =  1.00E-06,  avg # of iterations = 20.0

[...]

     CASE: energy  _new > energy  _old

[...]

     Self-consistent Calculation

[...]

     total energy              =    -329.48981821 Ry
     Harris-Foulkes estimate   =    -329.48981823 Ry
     estimated scf accuracy    <          3.3E-09 Ry

     iteration # 11     ecut=    30.00 Ry     beta=0.70
     Davidson diagonalization with overlap
     ethr =  5.94E-12,  avg # of iterations =  2.0

     End of self-consistent calculation

          k = 0.0000 0.0000 0.0000 ( 22119 PWs)   bands (ev):

    -8.5201  -7.7877  -7.7109  -7.2223  -6.8529  -6.7864  -6.5751  -6.5253
    -6.2844  -6.0813  -5.9134  -5.7698  -5.7178  -5.6902  -5.4709  -5.3718
    -5.3137  -5.2674  -5.2071  -5.1797  -5.1557  -5.1111  -4.9993  -4.9480
    -4.7961  -4.7285  -4.4961  -3.7942  -2.5313  -2.1932  -0.5521  -0.1770
     0.5814   0.8207

     the Fermi energy is    -3.7622 ev

!    total energy              =    -329.48981817 Ry
     Harris-Foulkes estimate   =    -329.48981821 Ry
     estimated scf accuracy    <          2.4E-10 Ry

     The total energy is the sum of the following terms:

     one-electron contribution =    -609.48729735 Ry
     hartree contribution      =     326.17685969 Ry
     xc contribution           =     -51.40155288 Ry
     ewald contribution        =       5.22635246 Ry
     smearing contrib. (-TS)   =      -0.00418009 Ry

     convergence has been achieved in  11 iterations

     Forces acting on atoms (Ry/au):

     atom    1 type  1   force =     0.00586438    0.00396469    0.00173590
     atom    2 type  1   force =    -0.00567691   -0.00393633   -0.00277917
     atom    3 type  1   force =     0.00101643   -0.00138482   -0.00314376
     atom    4 type  1   force =     0.00196735    0.00221443    0.00171542
     atom    5 type  1   force =    -0.00317125   -0.00085797    0.00247161

     Total force =     0.012248     Total SCF correction =     0.000081

     number of scf cycles    =  50
     number of bfgs steps    =  48

     energy   old            =    -329.4895481275 Ry
     energy   new            =    -329.4898181744 Ry

     CASE: energy  _new < energy  _old

     new trust radius        =       0.0576071794 bohr
     new conv_thr            =       0.0000000003 Ry

ATOMIC_POSITIONS (bohr)
Au      -2.294842657   1.379015020   0.080749759
Au      -0.442051150   4.158992263   4.054705527
Au       2.650383380   1.046891912   1.014891083
Au       4.505189581   3.596457217   5.451369334
Au       7.582142845   1.080133588   2.160957297

     Writing output data file pwscf.save
     Check: negative starting charge=   -0.006572
     NEW-OLD atomic charge density approx. for the potential
     Check: negative starting charge=   -0.006555

     negative rho (up, down):  7.955E-04 0.000E+00

     Writing output data file pwscf.save

     General routines

     Parallel routines

   This run was terminated on:   5:48:50   4Aug2017

   JOB DONE.