     Program PWSCF v.6.0 (svn rev. 13079) starts on  4Aug2017 at  1:59:26

     Current dimensions of program PWSCF are:
     Max number of different atomic species (ntypx) = 10
     Max number of k-points (npk) =  40000
     Max angular momentum in pseudopotentials (lmaxx) =  3
     Message from routine iosys:
     pot_extrapolation='second-order' not available, using 'atomic'
     Message from routine iosys:
     wfc_extrapolation='second-order' not available, using 'atomic'

     Subspace diagonalization in iterative solution of the eigenvalue problem:
     a serial algorithm will be used

     bravais-lattice index     =            1
     lattice parameter (alat)  =      20.0000  a.u.
     unit-cell volume          =    8000.0000 (a.u.)^3
     number of atoms/cell      =            5
     number of atomic types    =            1
     number of electrons       =        55.00
     number of Kohn-Sham states=           34
     kinetic-energy cutoff     =      30.0000  Ry
     charge density cutoff     =     120.0000  Ry
     convergence threshold     =      1.0E-08
     mixing beta               =       0.7000
     number of iterations used =            8  plain     mixing
     Exchange-correlation      = BLYP ( 1  3  1  3 0 0)
     nstep                     =           50

     celldm(1)=  20.000000  celldm(2)=   0.000000  celldm(3)=   0.000000
     celldm(4)=   0.000000  celldm(5)=   0.000000  celldm(6)=   0.000000

     crystal axes: (cart. coord. in units of alat)
               a(1) = (   1.000000   0.000000   0.000000 )
               a(2) = (   0.000000   1.000000   0.000000 )
               a(3) = (   0.000000   0.000000   1.000000 )

     reciprocal axes: (cart. coord. in units 2 pi/alat)
               b(1) = (  1.000000  0.000000  0.000000 )
               b(2) = (  0.000000  1.000000  0.000000 )
               b(3) = (  0.000000  0.000000  1.000000 )

     PseudoPot. # 1 for Au read from file:
     ./Au.blyp-d-hgh.UPF
     MD5 check sum: c10d8bae01f806c36a1643a1c69a8479
     Pseudo is Norm-conserving, Zval = 11.0
     Generated in analytical, separable form
     Using radial grid of 1279 points,  6 beta functions with:
                l(1) =   0
                l(2) =   0
                l(3) =   1
                l(4) =   1
                l(5) =   2
                l(6) =   2

     atomic species   valence    mass     pseudopotential
        Au            11.00    28.08600     Au( 1.00)

     No symmetry found

   Cartesian axes

     site n.     atom                  positions (alat units)
         1           Au  tau(   1) = (  -0.1134518   0.0901947  -0.0165828  )
         2           Au  tau(   2) = (   0.0066183   0.1385326   0.2055928  )
         3           Au  tau(   3) = (   0.1363243   0.0732096   0.0032990  )
         4           Au  tau(   4) = (   0.2295339   0.2189319   0.2914661  )
         5           Au  tau(   5) = (   0.3415904   0.0438384   0.1314533  )

     number of k points=     1  Marzari-Vanderbilt smearing, width (Ry)=  0.0250
                       cart. coord. in units 2pi/alat
        k(    1) = (   0.0000000   0.0000000   0.0000000), wk =   2.0000000

     Initial potential from superposition of free atoms
     Check: negative starting charge=   -0.006245

     starting charge   54.99940, renormalised to   55.00000

     negative rho (up, down):  6.245E-03 0.000E+00
     Starting wfc are   45 randomized atomic wfcs

     Self-consistent Calculation

     iteration #  1     ecut=    30.00 Ry     beta=0.70
     Davidson diagonalization with overlap
     ethr =  1.00E-02,  avg # of iterations =  3.0

     Threshold (ethr) on eigenvalues was too large:
     Diagonalizing with lowered threshold

     Davidson diagonalization with overlap
     ethr =  4.29E-04,  avg # of iterations =  7.0

     negative rho (up, down):  8.189E-04 0.000E+00

     total energy              =    -329.35595760 Ry
     Harris-Foulkes estimate   =    -329.53199094 Ry
     estimated scf accuracy    <       0.29275451 Ry

[...]

     End of self-consistent calculation

          k = 0.0000 0.0000 0.0000 ( 22119 PWs)   bands (ev):

    -8.4665  -7.8089  -7.6898  -7.4465  -6.9148  -6.8218  -6.6181  -6.5478
    -6.2631  -5.9658  -5.9528  -5.7483  -5.7213  -5.5595  -5.5467  -5.4722
    -5.2217  -5.1977  -5.1817  -5.1130  -5.0975  -4.9456  -4.9144  -4.9030
    -4.7957  -4.5806  -4.2611  -3.7463  -2.4286  -2.1217  -0.4252  -0.2083
     0.4302   0.6726

     the Fermi energy is    -3.7437 ev

!    total energy              =    -329.47252264 Ry
     Harris-Foulkes estimate   =    -329.47252267 Ry
     estimated scf accuracy    <          2.5E-09 Ry

     The total energy is the sum of the following terms:

     one-electron contribution =    -612.89095534 Ry
     hartree contribution      =     327.96735184 Ry
     xc contribution           =     -51.45450350 Ry
     ewald contribution        =       6.90390140 Ry
     smearing contrib. (-TS)   =       0.00168297 Ry

     convergence has been achieved in  12 iterations

     Forces acting on atoms (Ry/au):

     atom    1 type  1   force =    -0.01203713    0.00011551   -0.00226574
     atom    2 type  1   force =    -0.02126501    0.01012708    0.01654206
     atom    3 type  1   force =    -0.00361590   -0.00796592   -0.03464840
     atom    4 type  1   force =     0.00998900   -0.00601173    0.00036607
     atom    5 type  1   force =     0.02692905    0.00373505    0.02000600

     Total force =     0.059421     Total SCF correction =     0.000243

     BFGS Geometry Optimization

     number of scf cycles    =   1
     number of bfgs steps    =   0

     energy   new            =    -329.4725226407 Ry

     new trust radius        =       0.0357357246 bohr
     new conv_thr            =       0.0000000100 Ry

ATOMIC_POSITIONS (bohr)
Au      -2.281072130   1.804008514  -0.333921738
Au       0.111100985   2.780779081   4.128397059
Au       2.722870096   1.456226084   0.031332603
Au       4.600665997   4.372626270   5.829689073
Au       6.858736051   0.880503053   2.649071004

     Writing output data file pwscf.save
     Check: negative starting charge=   -0.006245
     NEW-OLD atomic charge density approx. for the potential
     Check: negative starting charge=   -0.006216

[...]

     energy   old            =    -329.4725226407 Ry
     energy   new            =    -329.4755157143 Ry

     CASE: energy  _new < energy  _old

[...]

     WARNING: bfgs curvature condition failed, Theta= 0.535
     new trust radius        =       0.0604980665 bohr
     new conv_thr            =       0.0000000005 Ry

[...]

     WARNING: info= 13 for Hessian
     uphill step: resetting bfgs history

[...]

     WARNING: bfgs curvature condition failed, Theta= 0.952
     new trust radius        =       0.0088699191 bohr
     new conv_thr            =       0.0000000002 Ry

[...]

     WARNING: bfgs curvature condition failed, Theta= 0.588
     uphill step: resetting bfgs history

[...]

     Self-consistent Calculation

[...]

     Threshold (ethr) on eigenvalues was too large:
     Diagonalizing with lowered threshold

     Davidson diagonalization with overlap
     ethr =  7.20E-08,  avg # of iterations =  1.0

[...]

     total energy              =    -329.49259638 Ry
     Harris-Foulkes estimate   =    -329.49259641 Ry
     estimated scf accuracy    <          2.6E-10 Ry

     iteration # 10     ecut=    30.00 Ry     beta=0.70
     Davidson diagonalization with overlap
     ethr =  4.74E-13,  avg # of iterations =  2.0

     End of self-consistent calculation

          k = 0.0000 0.0000 0.0000 ( 22119 PWs)   bands (ev):

    -8.5292  -7.7891  -7.6870  -7.2359  -6.8651  -6.8254  -6.5866  -6.4990
    -6.3119  -6.0846  -5.9367  -5.7738  -5.7286  -5.6904  -5.4599  -5.3595
    -5.3166  -5.2508  -5.2067  -5.1806  -5.1643  -5.1169  -4.9990  -4.9252
    -4.8355  -4.7230  -4.4827  -3.7856  -2.4571  -2.1895  -0.5434  -0.1859
     0.5128   0.8080

     the Fermi energy is    -3.7537 ev

!    total energy              =    -329.49259636 Ry
     Harris-Foulkes estimate   =    -329.49259639 Ry
     estimated scf accuracy    <          2.1E-11 Ry

     The total energy is the sum of the following terms:

     one-electron contribution =    -608.31004839 Ry
     hartree contribution      =     325.58315027 Ry
     xc contribution           =     -51.40231093 Ry
     ewald contribution        =       4.64078336 Ry
     smearing contrib. (-TS)   =      -0.00417067 Ry

     convergence has been achieved in  10 iterations

     Forces acting on atoms (Ry/au):

     atom    1 type  1   force =    -0.00033995    0.00205164   -0.00091279
     atom    2 type  1   force =    -0.00183524   -0.00096742   -0.00048105
     atom    3 type  1   force =    -0.00008581   -0.00082215   -0.00054813
     atom    4 type  1   force =     0.00276318   -0.00004039    0.00006647
     atom    5 type  1   force =    -0.00050218   -0.00022168    0.00187550

     Total force =     0.004705     Total SCF correction =     0.000021

     number of scf cycles    =  50
     number of bfgs steps    =  49

     energy   old            =    -329.4925523689 Ry
     energy   new            =    -329.4925963612 Ry

     CASE: energy  _new < energy  _old

     new trust radius        =       0.0164594786 bohr
     new conv_thr            =            1.0E-10 Ry

ATOMIC_POSITIONS (bohr)
Au      -1.923147163   1.919049209  -0.716523251
Au      -0.600111220   3.978887881   3.856143081
Au       2.862535612   1.292217279   0.789989310
Au       4.166093717   3.295819797   5.715639211
Au       7.506930055   0.808168834   2.659319648

     Writing output data file pwscf.save
     Check: negative starting charge=   -0.006419
     NEW-OLD atomic charge density approx. for the potential
     Check: negative starting charge=   -0.006419

     negative rho (up, down):  3.223E-05 0.000E+00

     Writing output data file pwscf.save

     General routines

     Parallel routines

   This run was terminated on:   2: 1:39   4Aug2017

   JOB DONE.