     Program PWSCF v.6.0 (svn rev. 13079) starts on  4Aug2017 at  7: 2:27

     Current dimensions of program PWSCF are:
     Max number of different atomic species (ntypx) = 10
     Max number of k-points (npk) =  40000
     Max angular momentum in pseudopotentials (lmaxx) =  3
     Message from routine iosys:
     pot_extrapolation='second-order' not available, using 'atomic'
     Message from routine iosys:
     wfc_extrapolation='second-order' not available, using 'atomic'

     Subspace diagonalization in iterative solution of the eigenvalue problem:
     a serial algorithm will be used

     bravais-lattice index     =            1
     lattice parameter (alat)  =      20.0000  a.u.
     unit-cell volume          =    8000.0000 (a.u.)^3
     number of atoms/cell      =            5
     number of atomic types    =            1
     number of electrons       =        55.00
     number of Kohn-Sham states=           34
     kinetic-energy cutoff     =      30.0000  Ry
     charge density cutoff     =     120.0000  Ry
     convergence threshold     =      1.0E-08
     mixing beta               =       0.7000
     number of iterations used =            8  plain     mixing
     Exchange-correlation      = BLYP ( 1  3  1  3 0 0)
     nstep                     =           50

     celldm(1)=  20.000000  celldm(2)=   0.000000  celldm(3)=   0.000000
     celldm(4)=   0.000000  celldm(5)=   0.000000  celldm(6)=   0.000000

     crystal axes: (cart. coord. in units of alat)
               a(1) = (   1.000000   0.000000   0.000000 )
               a(2) = (   0.000000   1.000000   0.000000 )
               a(3) = (   0.000000   0.000000   1.000000 )

     reciprocal axes: (cart. coord. in units 2 pi/alat)
               b(1) = (  1.000000  0.000000  0.000000 )
               b(2) = (  0.000000  1.000000  0.000000 )
               b(3) = (  0.000000  0.000000  1.000000 )

     PseudoPot. # 1 for Au read from file:
     ./Au.blyp-d-hgh.UPF
     MD5 check sum: c10d8bae01f806c36a1643a1c69a8479
     Pseudo is Norm-conserving, Zval = 11.0
     Generated in analytical, separable form
     Using radial grid of 1279 points,  6 beta functions with:
                l(1) =   0
                l(2) =   0
                l(3) =   1
                l(4) =   1
                l(5) =   2
                l(6) =   2

     atomic species   valence    mass     pseudopotential
        Au            11.00    28.08600     Au( 1.00)

     No symmetry found

   Cartesian axes

     site n.     atom                  positions (alat units)
         1           Au  tau(   1) = (   0.0379261   0.0773335   0.0723025  )
         2           Au  tau(   2) = (   0.0560975   0.1672731   0.1922813  )
         3           Au  tau(   3) = (   0.1899942   0.2051132  -0.0110956  )
         4           Au  tau(   4) = (   0.2248026   0.2442937   0.2224601  )
         5           Au  tau(   5) = (   0.2020018  -0.0234407   0.1898748  )

     number of k points=     1  Marzari-Vanderbilt smearing, width (Ry)=  0.0250
                       cart. coord. in units 2pi/alat
        k(    1) = (   0.0000000   0.0000000   0.0000000), wk =   2.0000000

     Initial potential from superposition of free atoms
     Check: negative starting charge=   -0.007330

     starting charge   54.99940, renormalised to   55.00000

     negative rho (up, down):  7.330E-03 0.000E+00
     Starting wfc are   45 randomized atomic wfcs

     Self-consistent Calculation

     iteration #  1     ecut=    30.00 Ry     beta=0.70
     Davidson diagonalization with overlap
     ethr =  1.00E-02,  avg # of iterations =  5.0

     negative rho (up, down):  3.896E-04 0.000E+00

     total energy              =    -325.42651850 Ry
     Harris-Foulkes estimate   =    -326.88788506 Ry
     estimated scf accuracy    <       1.84337877 Ry

[...]

     End of self-consistent calculation

          k = 0.0000 0.0000 0.0000 ( 22119 PWs)   bands (ev):

   -18.1985 -17.6213 -17.2817 -13.5940 -13.0960 -11.2154 -10.5691  -9.9518
    -9.1543  -8.3064  -8.0149  -7.6135  -6.9831  -6.8623  -6.2836  -6.2761
    -6.0752  -5.9381  -5.8062  -5.7420  -5.5577  -5.3805  -5.1497  -4.7213
    -4.5860  -4.1429  -3.9427  -3.7311  -2.6145  -1.0802  -0.5767  -0.1211
     0.0676   0.5023

     the Fermi energy is    -3.6885 ev

!    total energy              =    -326.53090222 Ry
     Harris-Foulkes estimate   =    -326.53090220 Ry
     estimated scf accuracy    <          3.9E-09 Ry

     The total energy is the sum of the following terms:

     one-electron contribution =    -813.84973216 Ry
     hartree contribution      =     424.07102064 Ry
     xc contribution           =     -52.47623105 Ry
     ewald contribution        =     115.72193783 Ry
     smearing contrib. (-TS)   =       0.00210252 Ry

     convergence has been achieved in  15 iterations

     Forces acting on atoms (Ry/au):

     atom    1 type  1   force =    -0.89559473   -2.79257576   -3.57273802
     atom    2 type  1   force =    -0.51596454    2.34473786    3.51420138
     atom    3 type  1   force =     0.25748112    0.19721426   -0.32299194
     atom    4 type  1   force =     0.94856855    0.47292025    0.27369388
     atom    5 type  1   force =     0.20550961   -0.22229661    0.10783470

     Total force =     6.402327     Total SCF correction =     0.000293

     BFGS Geometry Optimization

     number of scf cycles    =   1
     number of bfgs steps    =   0

     energy   new            =    -326.5309022235 Ry

     new trust radius        =       0.5000000000 bohr
     new conv_thr            =       0.0000000100 Ry

ATOMIC_POSITIONS (bohr)
Au       0.661642961   1.244589110   1.059577731
Au       1.066136643   3.599098987   4.225768193
Au       3.827735467   4.123598229  -0.256850960
Au       4.598661367   4.937030133   4.478808248
Au       4.062266561  -0.492860459   3.809160787

     Writing output data file pwscf.save
     Check: negative starting charge=   -0.007330
     NEW-OLD atomic charge density approx. for the potential
     Check: negative starting charge=   -0.006986

[...]

     energy   old            =    -326.5309022235 Ry
     energy   new            =    -328.6320896116 Ry

     CASE: energy  _new < energy  _old

[...]

     WARNING: bfgs curvature condition failed, Theta= 0.861
     new trust radius        =       0.1949565279 bohr
     new conv_thr            =       0.0000000008 Ry

[...]

     CASE: energy  _new > energy  _old

[...]

     WARNING: bfgs curvature condition failed, Theta= 0.931
     new trust radius        =       0.0439988219 bohr
     new conv_thr            =       0.0000000012 Ry

[...]

     CASE: energy  _new < energy  _old

[...]

     new trust radius        =       0.0000738682 bohr

     trust_radius < trust_radius_min

     resetting bfgs history

     new conv_thr            =       0.0000000010 Ry

[...]

     Threshold (ethr) on eigenvalues was too large:
     Diagonalizing with lowered threshold

     Davidson diagonalization with overlap
     ethr =  7.07E-08,  avg # of iterations =  1.0

[...]

     new trust radius        =       0.0017703697 bohr
     new conv_thr            =       0.0000000010 Ry

[...]

     Self-consistent Calculation

[...]

     Threshold (ethr) on eigenvalues was too large:
     Diagonalizing with lowered threshold

     Davidson diagonalization with overlap
     ethr =  7.54E-08,  avg # of iterations =  1.0

[...]

     total energy              =    -329.47279698 Ry
     Harris-Foulkes estimate   =    -329.47279694 Ry
     estimated scf accuracy    <          1.7E-09 Ry

     iteration #  9     ecut=    30.00 Ry     beta=0.70
     Davidson diagonalization with overlap
     ethr =  3.16E-12,  avg # of iterations =  3.0

     End of self-consistent calculation

          k = 0.0000 0.0000 0.0000 ( 22119 PWs)   bands (ev):

    -8.3226  -7.6395  -7.4950  -7.3120  -7.1558  -6.7565  -6.6737  -6.4887
    -6.2934  -6.1492  -5.9221  -5.7686  -5.6731  -5.6468  -5.5734  -5.4660
    -5.2418  -5.1853  -5.1586  -5.0852  -5.0726  -5.0198  -4.9999  -4.9624
    -4.8644  -4.5271  -4.3466  -3.6208  -2.5701  -2.1421  -0.3904  -0.1452
     0.1969   0.6238

     the Fermi energy is    -3.5861 ev

!    total energy              =    -329.47279695 Ry
     Harris-Foulkes estimate   =    -329.47279698 Ry
     estimated scf accuracy    <          2.5E-10 Ry

     The total energy is the sum of the following terms:

     one-electron contribution =    -604.88534796 Ry
     hartree contribution      =     323.93931007 Ry
     xc contribution           =     -51.41208173 Ry
     ewald contribution        =       2.89014697 Ry
     smearing contrib. (-TS)   =      -0.00482429 Ry

     convergence has been achieved in   9 iterations

     Forces acting on atoms (Ry/au):

     atom    1 type  1   force =    -0.01497796   -0.00160513   -0.00770867
     atom    2 type  1   force =    -0.00204900   -0.01572342    0.01471204
     atom    3 type  1   force =     0.02543686    0.01095198   -0.00022745
     atom    4 type  1   force =     0.00433017    0.01276951   -0.01692823
     atom    5 type  1   force =    -0.01274008   -0.00639294    0.01015232

     Total force =     0.047915     Total SCF correction =     0.000070

     number of scf cycles    =  50
     number of bfgs steps    =  44

     energy   old            =    -329.4776583704 Ry
     energy   new            =    -329.4727969454 Ry

     CASE: energy  _new > energy  _old

     new trust radius        =       0.0000170625 bohr

     trust_radius < trust_radius_min

     resetting bfgs history

     new conv_thr            =       0.0000000010 Ry

ATOMIC_POSITIONS (bohr)
Au      -0.769876992   1.422997572  -1.154510499
Au       0.184947178   1.952284143   3.846837487
Au       3.308196913   3.970728963   0.333501696
Au       6.842256921   4.941741370   3.971291015
Au       4.650918980   1.123703952   6.319344301

     Writing output data file pwscf.save
     Check: negative starting charge=   -0.006034
     NEW-OLD atomic charge density approx. for the potential
     Check: negative starting charge=   -0.006030

     negative rho (up, down):  4.504E-05 0.000E+00

     Writing output data file pwscf.save

     General routines

     Parallel routines

   This run was terminated on:   7: 5:14   4Aug2017

   JOB DONE.