     Program PWSCF v.6.0 (svn rev. 13079) starts on  4Aug2017 at  7:51:50

     Current dimensions of program PWSCF are:
     Max number of different atomic species (ntypx) = 10
     Max number of k-points (npk) =  40000
     Max angular momentum in pseudopotentials (lmaxx) =  3
     Message from routine iosys:
     pot_extrapolation='second-order' not available, using 'atomic'
     Message from routine iosys:
     wfc_extrapolation='second-order' not available, using 'atomic'

     Subspace diagonalization in iterative solution of the eigenvalue problem:
     a serial algorithm will be used

     bravais-lattice index     =            1
     lattice parameter (alat)  =      20.0000  a.u.
     unit-cell volume          =    8000.0000 (a.u.)^3
     number of atoms/cell      =            5
     number of atomic types    =            1
     number of electrons       =        55.00
     number of Kohn-Sham states=           34
     kinetic-energy cutoff     =      30.0000  Ry
     charge density cutoff     =     120.0000  Ry
     convergence threshold     =      1.0E-08
     mixing beta               =       0.7000
     number of iterations used =            8  plain     mixing
     Exchange-correlation      = BLYP ( 1  3  1  3 0 0)
     nstep                     =           50

     celldm(1)=  20.000000  celldm(2)=   0.000000  celldm(3)=   0.000000
     celldm(4)=   0.000000  celldm(5)=   0.000000  celldm(6)=   0.000000

     crystal axes: (cart. coord. in units of alat)
               a(1) = (   1.000000   0.000000   0.000000 )
               a(2) = (   0.000000   1.000000   0.000000 )
               a(3) = (   0.000000   0.000000   1.000000 )

     reciprocal axes: (cart. coord. in units 2 pi/alat)
               b(1) = (  1.000000  0.000000  0.000000 )
               b(2) = (  0.000000  1.000000  0.000000 )
               b(3) = (  0.000000  0.000000  1.000000 )

     PseudoPot. # 1 for Au read from file:
     ./Au.blyp-d-hgh.UPF
     MD5 check sum: c10d8bae01f806c36a1643a1c69a8479
     Pseudo is Norm-conserving, Zval = 11.0
     Generated in analytical, separable form
     Using radial grid of 1279 points,  6 beta functions with:
                l(1) =   0
                l(2) =   0
                l(3) =   1
                l(4) =   1
                l(5) =   2
                l(6) =   2

     atomic species   valence    mass     pseudopotential
        Au            11.00    28.08600     Au( 1.00)

     No symmetry found

   Cartesian axes

     site n.     atom                  positions (alat units)
         1           Au  tau(   1) = (   0.1831996   0.0003766   0.0103421  )
         2           Au  tau(   2) = (  -0.0157011   0.2443252   0.1834013  )
         3           Au  tau(   3) = (   0.1605757   0.1867728  -0.0223588  )
         4           Au  tau(   4) = (   0.2289666   0.2406481   0.2171898  )
         5           Au  tau(   5) = (   0.2295830  -0.0104205   0.2052850  )

     number of k points=     1  Marzari-Vanderbilt smearing, width (Ry)=  0.0250
                       cart. coord. in units 2pi/alat
        k(    1) = (   0.0000000   0.0000000   0.0000000), wk =   2.0000000

     Initial potential from superposition of free atoms
     Check: negative starting charge=   -0.006495

     starting charge   54.99940, renormalised to   55.00000

     negative rho (up, down):  6.495E-03 0.000E+00
     Starting wfc are   45 randomized atomic wfcs

     Self-consistent Calculation

     iteration #  1     ecut=    30.00 Ry     beta=0.70
     Davidson diagonalization with overlap
     ethr =  1.00E-02,  avg # of iterations =  4.0

     negative rho (up, down):  4.769E-04 0.000E+00

     total energy              =    -328.58618693 Ry
     Harris-Foulkes estimate   =    -328.98952098 Ry
     estimated scf accuracy    <       0.60496350 Ry

[...]

     End of self-consistent calculation

          k = 0.0000 0.0000 0.0000 ( 22119 PWs)   bands (ev):

   -11.2906 -10.8578 -10.2383  -9.6515  -8.9260  -8.1720  -7.4760  -7.2408
    -6.9991  -6.8806  -6.8649  -6.6832  -6.0907  -5.9114  -5.7744  -5.6954
    -5.3754  -5.3161  -5.1689  -5.0535  -4.9756  -4.9242  -4.7917  -4.5515
    -4.4877  -4.1180  -3.8757  -3.4660  -2.9819  -1.2629  -0.5334  -0.2822
    -0.1708   0.6384

     the Fermi energy is    -3.4787 ev

!    total energy              =    -328.86889559 Ry
     Harris-Foulkes estimate   =    -328.86889561 Ry
     estimated scf accuracy    <          2.8E-09 Ry

     The total energy is the sum of the following terms:

     one-electron contribution =    -689.85607172 Ry
     hartree contribution      =     365.34887961 Ry
     xc contribution           =     -51.82202720 Ry
     ewald contribution        =      47.45550929 Ry
     smearing contrib. (-TS)   =       0.00481443 Ry

     convergence has been achieved in  14 iterations

     Forces acting on atoms (Ry/au):

     atom    1 type  1   force =    -0.01564016   -0.84821832   -0.39604579
     atom    2 type  1   force =    -0.01184102    0.01665980   -0.00107439
     atom    3 type  1   force =    -0.12790318    0.86083654   -0.20739961
     atom    4 type  1   force =     0.01877335    0.04798542    0.05837868
     atom    5 type  1   force =     0.13661101   -0.07726344    0.54614112

     Total force =     1.416464     Total SCF correction =     0.000231

     BFGS Geometry Optimization

     number of scf cycles    =   1
     number of bfgs steps    =   0

     energy   new            =    -328.8688955921 Ry

     new trust radius        =       0.5000000000 bohr
     new conv_thr            =       0.0000000100 Ry

ATOMIC_POSITIONS (bohr)
Au       3.655639481  -0.445453243  -0.004662567
Au      -0.320344616   4.895401053   3.667453227
Au       3.143208174   4.195179916  -0.557936356
Au       4.589358778   4.838588290   4.374971737
Au       4.664615184  -0.249671016   4.397361959

     Writing output data file pwscf.save
     Check: negative starting charge=   -0.006495
     NEW-OLD atomic charge density approx. for the potential
     Check: negative starting charge=   -0.006208

[...]

     energy   old            =    -328.8688955921 Ry
     energy   new            =    -329.3718268667 Ry

     CASE: energy  _new < energy  _old

[...]

     iteration #  1     ecut=    30.00 Ry     beta=0.70
     Davidson diagonalization with overlap
     c_bands:  1 eigenvalues not converged
     ethr =  1.00E-06,  avg # of iterations = 20.0

[...]

     iteration #  1     ecut=    30.00 Ry     beta=0.70
     Davidson diagonalization with overlap
     c_bands:  1 eigenvalues not converged
     ethr =  1.00E-06,  avg # of iterations = 20.0

[...]

     number of scf cycles    =  42
     number of bfgs steps    =  41

     energy   old            =    -329.4942194251 Ry
     energy   new            =    -329.4942762181 Ry

     CASE: energy  _new < energy  _old

     new trust radius        =       0.0166461394 bohr
     new conv_thr            =            1.0E-10 Ry

ATOMIC_POSITIONS (bohr)
Au       4.446608333  -1.233085114  -1.083946028
Au       0.081817131   6.988692928   2.805370401
Au       2.164530304   2.932576510   0.630604693
Au       3.516948858   4.459922446   5.723924818
Au       5.522572374   0.085938230   3.801234116

     Writing output data file pwscf.save
     Check: negative starting charge=   -0.005969
     NEW-OLD atomic charge density approx. for the potential
     Check: negative starting charge=   -0.005972

[...]

     Self-consistent Calculation

[...]

     negative rho (up, down):  1.678E-07 0.000E+00

[...]

     total energy              =    -329.49431444 Ry
     Harris-Foulkes estimate   =    -329.49431445 Ry
     estimated scf accuracy    <          2.3E-09 Ry

     iteration #  9     ecut=    30.00 Ry     beta=0.70
     Davidson diagonalization with overlap
     ethr =  4.15E-12,  avg # of iterations =  2.0

     End of self-consistent calculation

          k = 0.0000 0.0000 0.0000 ( 22119 PWs)   bands (ev):

    -8.4769  -7.7514  -7.6257  -7.2062  -6.8473  -6.7958  -6.6022  -6.4559
    -6.2900  -6.0576  -5.9452  -5.7569  -5.7139  -5.6691  -5.4337  -5.3579
    -5.3089  -5.2379  -5.1945  -5.1690  -5.1659  -5.1153  -4.9857  -4.9211
    -4.8413  -4.7269  -4.4804  -3.7694  -2.3839  -2.1980  -0.4921  -0.1974
     0.4026   0.6631

     the Fermi energy is    -3.7355 ev

!    total energy              =    -329.49431444 Ry
     Harris-Foulkes estimate   =    -329.49431444 Ry
     estimated scf accuracy    <          9.4E-11 Ry

     The total energy is the sum of the following terms:

     one-electron contribution =    -601.47274578 Ry
     hartree contribution      =     322.19055376 Ry
     xc contribution           =     -51.39315806 Ry
     ewald contribution        =       1.18568187 Ry
     smearing contrib. (-TS)   =      -0.00464624 Ry

     convergence has been achieved in   9 iterations

     Forces acting on atoms (Ry/au):

     atom    1 type  1   force =    -0.00001039   -0.00011390   -0.00042682
     atom    2 type  1   force =    -0.00047917   -0.00035762    0.00016690
     atom    3 type  1   force =     0.00079218    0.00099999    0.00076751
     atom    4 type  1   force =    -0.00078402   -0.00067256   -0.00029444
     atom    5 type  1   force =     0.00048140    0.00014410   -0.00021315

     Total force =     0.002061     Total SCF correction =     0.000041

     bfgs converged in  43 scf cycles and  42 bfgs steps
     (criteria: energy <  1.0E-04, force <  1.0E-03)

     End of BFGS Geometry Optimization

     Final energy   =    -329.4943144412 Ry
Begin final coordinates

ATOMIC_POSITIONS (bohr)
Au       4.446608333  -1.233085114  -1.083946028
Au       0.081817131   6.988692928   2.805370401
Au       2.164530304   2.932576510   0.630604693
Au       3.516948858   4.459922446   5.723924818
Au       5.522572374   0.085938230   3.801234116
End final coordinates

     Writing output data file pwscf.save

     General routines

     Parallel routines

   This run was terminated on:   7:54: 0   4Aug2017

   JOB DONE.