     Program PWSCF v.6.0 (svn rev. 13079) starts on  3Aug2017 at 23: 9:56

     Current dimensions of program PWSCF are:
     Max number of different atomic species (ntypx) = 10
     Max number of k-points (npk) =  40000
     Max angular momentum in pseudopotentials (lmaxx) =  3
     Message from routine iosys:
     pot_extrapolation='second-order' not available, using 'atomic'
     Message from routine iosys:
     wfc_extrapolation='second-order' not available, using 'atomic'

     Subspace diagonalization in iterative solution of the eigenvalue problem:
     a serial algorithm will be used

     bravais-lattice index     =            1
     lattice parameter (alat)  =      20.0000  a.u.
     unit-cell volume          =    8000.0000 (a.u.)^3
     number of atoms/cell      =            5
     number of atomic types    =            1
     number of electrons       =        55.00
     number of Kohn-Sham states=           34
     kinetic-energy cutoff     =      30.0000  Ry
     charge density cutoff     =     120.0000  Ry
     convergence threshold     =      1.0E-08
     mixing beta               =       0.7000
     number of iterations used =            8  plain     mixing
     Exchange-correlation      = BLYP ( 1  3  1  3 0 0)
     nstep                     =           50

     celldm(1)=  20.000000  celldm(2)=   0.000000  celldm(3)=   0.000000
     celldm(4)=   0.000000  celldm(5)=   0.000000  celldm(6)=   0.000000

     crystal axes: (cart. coord. in units of alat)
               a(1) = (   1.000000   0.000000   0.000000 )
               a(2) = (   0.000000   1.000000   0.000000 )
               a(3) = (   0.000000   0.000000   1.000000 )

     reciprocal axes: (cart. coord. in units 2 pi/alat)
               b(1) = (  1.000000  0.000000  0.000000 )
               b(2) = (  0.000000  1.000000  0.000000 )
               b(3) = (  0.000000  0.000000  1.000000 )

     PseudoPot. # 1 for Au read from file:
     ./Au.blyp-d-hgh.UPF
     MD5 check sum: c10d8bae01f806c36a1643a1c69a8479
     Pseudo is Norm-conserving, Zval = 11.0
     Generated in analytical, separable form
     Using radial grid of 1279 points,  6 beta functions with:
                l(1) =   0
                l(2) =   0
                l(3) =   1
                l(4) =   1
                l(5) =   2
                l(6) =   2

     atomic species   valence    mass     pseudopotential
        Au            11.00    28.08600     Au( 1.00)

     No symmetry found

   Cartesian axes

     site n.     atom                  positions (alat units)
         1           Au  tau(   1) = (  -0.0959624   0.0902735  -0.0215445  )
         2           Au  tau(   2) = (  -0.0401470   0.1397492   0.2209649  )
         3           Au  tau(   3) = (   0.1504092   0.0751279   0.0254186  )
         4           Au  tau(   4) = (   0.2054607   0.1692865   0.2855605  )
         5           Au  tau(   5) = (   0.3820958   0.0823246   0.1252223  )

     number of k points=     1  Marzari-Vanderbilt smearing, width (Ry)=  0.0250
                       cart. coord. in units 2pi/alat
        k(    1) = (   0.0000000   0.0000000   0.0000000), wk =   2.0000000

     Initial potential from superposition of free atoms
     Check: negative starting charge=   -0.006448

     starting charge   54.99940, renormalised to   55.00000

     negative rho (up, down):  6.448E-03 0.000E+00
     Starting wfc are   45 randomized atomic wfcs

     Self-consistent Calculation

     iteration #  1     ecut=    30.00 Ry     beta=0.70
     Davidson diagonalization with overlap
     ethr =  1.00E-02,  avg # of iterations =  3.0

     Threshold (ethr) on eigenvalues was too large:
     Diagonalizing with lowered threshold

     Davidson diagonalization with overlap
     ethr =  4.02E-04,  avg # of iterations =  3.0

     negative rho (up, down):  8.854E-04 0.000E+00

     total energy              =    -329.37730928 Ry
     Harris-Foulkes estimate   =    -329.54496826 Ry
     estimated scf accuracy    <       0.27865770 Ry

[...]

     End of self-consistent calculation

          k = 0.0000 0.0000 0.0000 ( 22119 PWs)   bands (ev):

    -8.4136  -7.7387  -7.6388  -7.1784  -6.9646  -6.7696  -6.7581  -6.4539
    -6.2690  -6.0588  -5.9925  -5.7635  -5.7225  -5.6690  -5.4172  -5.3365
    -5.3289  -5.2195  -5.1808  -5.1755  -5.1725  -5.1377  -4.9863  -4.8879
    -4.8447  -4.7054  -4.3882  -3.7970  -2.5296  -2.1470  -0.5507  -0.2436
     0.5360   0.8718

     the Fermi energy is    -3.7813 ev

!    total energy              =    -329.48766357 Ry
     Harris-Foulkes estimate   =    -329.48766358 Ry
     estimated scf accuracy    <          4.7E-09 Ry

     The total energy is the sum of the following terms:

     one-electron contribution =    -610.25935279 Ry
     hartree contribution      =     326.59379602 Ry
     xc contribution           =     -51.41656604 Ry
     ewald contribution        =       5.59529722 Ry
     smearing contrib. (-TS)   =      -0.00083798 Ry

     convergence has been achieved in  12 iterations

     Forces acting on atoms (Ry/au):

     atom    1 type  1   force =    -0.00632366   -0.00229934   -0.01002159
     atom    2 type  1   force =    -0.00067646    0.00132415   -0.00074150
     atom    3 type  1   force =     0.00051985    0.00392609    0.01452259
     atom    4 type  1   force =     0.00268511   -0.00171669    0.00043994
     atom    5 type  1   force =     0.00379515   -0.00123421   -0.00419945

     Total force =     0.020469     Total SCF correction =     0.000259

     BFGS Geometry Optimization

     number of scf cycles    =   1
     number of bfgs steps    =   0

     energy   new            =    -329.4876635740 Ry

     new trust radius        =       0.0150529083 bohr
     new conv_thr            =       0.0000000100 Ry

ATOMIC_POSITIONS (bohr)
Au      -1.925571656   1.803169655  -0.440911586
Au      -0.803616462   2.796308155   4.418556505
Au       3.008704854   1.506485094   0.522895589
Au       4.111900109   3.384012308   5.711648942
Au       7.645711154   1.645257788   2.500245550

     Writing output data file pwscf.save
     Check: negative starting charge=   -0.006448
     NEW-OLD atomic charge density approx. for the potential
     Check: negative starting charge=   -0.006445

[...]

     energy   old            =    -329.4876635740 Ry
     energy   new            =    -329.4880596562 Ry

     CASE: energy  _new < energy  _old

     WARNING: bfgs curvature condition failed, Theta= 0.903
     new trust radius        =       0.0165581991 bohr
     new conv_thr            =       0.0000000004 Ry

[...]

     number of scf cycles    =  20
     number of bfgs steps    =  19

     energy   old            =    -329.4907932803 Ry
     energy   new            =    -329.4908060466 Ry

     CASE: energy  _new < energy  _old

     new trust radius        =       0.0089498479 bohr
     new conv_thr            =            1.0E-10 Ry

ATOMIC_POSITIONS (bohr)
Au      -1.899268877   1.674185137  -0.596982206
Au      -0.849779538   2.866619336   4.323915393
Au       2.981158370   1.661382953   0.699882200
Au       4.102302031   3.247601415   5.809289705
Au       7.702716013   1.685444160   2.476329908

     Writing output data file pwscf.save
     Check: negative starting charge=   -0.006519
     NEW-OLD atomic charge density approx. for the potential
     Check: negative starting charge=   -0.006513

     negative rho (up, down):  5.448E-06 0.000E+00

     Self-consistent Calculation

[...]

     Threshold (ethr) on eigenvalues was too large:
     Diagonalizing with lowered threshold

     Davidson diagonalization with overlap
     ethr =  2.97E-08,  avg # of iterations =  1.0

[...]

     total energy              =    -329.49081355 Ry
     Harris-Foulkes estimate   =    -329.49081352 Ry
     estimated scf accuracy    <          7.0E-10 Ry

     iteration #  9     ecut=    30.00 Ry     beta=0.70
     Davidson diagonalization with overlap
     ethr =  1.27E-12,  avg # of iterations =  2.0

     End of self-consistent calculation

          k = 0.0000 0.0000 0.0000 ( 22119 PWs)   bands (ev):

    -8.5114  -7.7855  -7.6491  -7.2299  -6.8633  -6.8151  -6.6275  -6.4813
    -6.2969  -6.0755  -5.9659  -5.7703  -5.7353  -5.6867  -5.4582  -5.3734
    -5.3159  -5.2476  -5.2012  -5.1865  -5.1751  -5.1259  -4.9984  -4.9298
    -4.8425  -4.7321  -4.4769  -3.7817  -2.5111  -2.2024  -0.5732  -0.2071
     0.5085   0.8946

     the Fermi energy is    -3.7498 ev

!    total energy              =    -329.49081355 Ry
     Harris-Foulkes estimate   =    -329.49081355 Ry
     estimated scf accuracy    <          7.8E-11 Ry

     The total energy is the sum of the following terms:

     one-electron contribution =    -610.05079398 Ry
     hartree contribution      =     326.45436593 Ry
     xc contribution           =     -51.40267534 Ry
     ewald contribution        =       5.51249752 Ry
     smearing contrib. (-TS)   =      -0.00420768 Ry

     convergence has been achieved in   9 iterations

     Forces acting on atoms (Ry/au):

     atom    1 type  1   force =    -0.00040884   -0.00007873   -0.00073090
     atom    2 type  1   force =     0.00047592   -0.00033378   -0.00042491
     atom    3 type  1   force =     0.00069829   -0.00028574    0.00047520
     atom    4 type  1   force =    -0.00010916    0.00053449    0.00068133
     atom    5 type  1   force =    -0.00065621    0.00016376   -0.00000072

     Total force =     0.001800     Total SCF correction =     0.000033

     bfgs converged in  21 scf cycles and  20 bfgs steps
     (criteria: energy <  1.0E-04, force <  1.0E-03)

     End of BFGS Geometry Optimization

     Final energy   =    -329.4908135544 Ry
Begin final coordinates

ATOMIC_POSITIONS (bohr)
Au      -1.899268877   1.674185137  -0.596982206
Au      -0.849779538   2.866619336   4.323915393
Au       2.981158370   1.661382953   0.699882200
Au       4.102302031   3.247601415   5.809289705
Au       7.702716013   1.685444160   2.476329908
End final coordinates

     Writing output data file pwscf.save

     General routines

     Parallel routines

   This run was terminated on:  23:10:49   3Aug2017

   JOB DONE.