     Program PWSCF v.6.0 (svn rev. 13079) starts on  3Aug2017 at 16: 6: 8

     Current dimensions of program PWSCF are:
     Max number of different atomic species (ntypx) = 10
     Max number of k-points (npk) =  40000
     Max angular momentum in pseudopotentials (lmaxx) =  3
     Message from routine iosys:
     pot_extrapolation='second-order' not available, using 'atomic'
     Message from routine iosys:
     wfc_extrapolation='second-order' not available, using 'atomic'

     Subspace diagonalization in iterative solution of the eigenvalue problem:
     a serial algorithm will be used

     bravais-lattice index     =            1
     lattice parameter (alat)  =      20.0000  a.u.
     unit-cell volume          =    8000.0000 (a.u.)^3
     number of atoms/cell      =            5
     number of atomic types    =            1
     number of electrons       =        55.00
     number of Kohn-Sham states=           34
     kinetic-energy cutoff     =      30.0000  Ry
     charge density cutoff     =     120.0000  Ry
     convergence threshold     =      1.0E-08
     mixing beta               =       0.7000
     number of iterations used =            8  plain     mixing
     Exchange-correlation      = BLYP ( 1  3  1  3 0 0)
     nstep                     =           50

     celldm(1)=  20.000000  celldm(2)=   0.000000  celldm(3)=   0.000000
     celldm(4)=   0.000000  celldm(5)=   0.000000  celldm(6)=   0.000000

     crystal axes: (cart. coord. in units of alat)
               a(1) = (   1.000000   0.000000   0.000000 )
               a(2) = (   0.000000   1.000000   0.000000 )
               a(3) = (   0.000000   0.000000   1.000000 )

     reciprocal axes: (cart. coord. in units 2 pi/alat)
               b(1) = (  1.000000  0.000000  0.000000 )
               b(2) = (  0.000000  1.000000  0.000000 )
               b(3) = (  0.000000  0.000000  1.000000 )

     PseudoPot. # 1 for Au read from file:
     ./Au.blyp-d-hgh.UPF
     MD5 check sum: c10d8bae01f806c36a1643a1c69a8479
     Pseudo is Norm-conserving, Zval = 11.0
     Generated in analytical, separable form
     Using radial grid of 1279 points,  6 beta functions with:
                l(1) =   0
                l(2) =   0
                l(3) =   1
                l(4) =   1
                l(5) =   2
                l(6) =   2

     atomic species   valence    mass     pseudopotential
        Au            11.00    28.08600     Au( 1.00)

     No symmetry found

   Cartesian axes

     site n.     atom                  positions (alat units)
         1           Au  tau(   1) = (  -0.0817284   0.0874354  -0.0388416  )
         2           Au  tau(   2) = (  -0.0377384   0.1858314   0.1909969  )
         3           Au  tau(   3) = (   0.1563854   0.0638304   0.0297994  )
         4           Au  tau(   4) = (   0.2037808   0.2064386   0.2713264  )
         5           Au  tau(   5) = (   0.3770626   0.0666194   0.1476684  )

     number of k points=     1  Marzari-Vanderbilt smearing, width (Ry)=  0.0250
                       cart. coord. in units 2pi/alat
        k(    1) = (   0.0000000   0.0000000   0.0000000), wk =   2.0000000

     Initial potential from superposition of free atoms
     Check: negative starting charge=   -0.006337

     starting charge   54.99940, renormalised to   55.00000

     negative rho (up, down):  6.337E-03 0.000E+00
     Starting wfc are   45 randomized atomic wfcs

     Self-consistent Calculation

     iteration #  1     ecut=    30.00 Ry     beta=0.70
     Davidson diagonalization with overlap
     ethr =  1.00E-02,  avg # of iterations =  3.0

     Threshold (ethr) on eigenvalues was too large:
     Diagonalizing with lowered threshold

     Davidson diagonalization with overlap
     ethr =  4.09E-04,  avg # of iterations =  5.0

     negative rho (up, down):  8.543E-04 0.000E+00

     total energy              =    -329.37603246 Ry
     Harris-Foulkes estimate   =    -329.54554025 Ry
     estimated scf accuracy    <       0.28120939 Ry

[...]

     End of self-consistent calculation

          k = 0.0000 0.0000 0.0000 ( 22119 PWs)   bands (ev):

    -8.4553  -7.7455  -7.6420  -7.1565  -6.9841  -6.7977  -6.7523  -6.4478
    -6.2581  -6.0579  -6.0049  -5.7771  -5.7271  -5.6703  -5.4140  -5.3269
    -5.2852  -5.2140  -5.1797  -5.1691  -5.1631  -5.1367  -4.9482  -4.8821
    -4.8471  -4.6813  -4.3747  -3.8035  -2.4364  -2.1578  -0.5223  -0.2169
     0.5315   0.7852

     the Fermi energy is    -3.7922 ev

!    total energy              =    -329.48796884 Ry
     Harris-Foulkes estimate   =    -329.48796887 Ry
     estimated scf accuracy    <          8.1E-09 Ry

     The total energy is the sum of the following terms:

     one-electron contribution =    -609.20613546 Ry
     hartree contribution      =     326.07655233 Ry
     xc contribution           =     -51.42282471 Ry
     ewald contribution        =       5.06437859 Ry
     smearing contrib. (-TS)   =       0.00006041 Ry

     convergence has been achieved in  12 iterations

     Forces acting on atoms (Ry/au):

     atom    1 type  1   force =    -0.01267358   -0.00381848   -0.01224448
     atom    2 type  1   force =    -0.00128523   -0.00056592   -0.00061431
     atom    3 type  1   force =    -0.00093771    0.00689509    0.01181538
     atom    4 type  1   force =     0.00567937   -0.00101268   -0.00031479
     atom    5 type  1   force =     0.00921715   -0.00149801    0.00135820

     Total force =     0.025257     Total SCF correction =     0.000355

     BFGS Geometry Optimization

     number of scf cycles    =   1
     number of bfgs steps    =   0

     energy   new            =    -329.4879688401 Ry

     new trust radius        =       0.0180312924 bohr
     new conv_thr            =       0.0000000100 Ry

ATOMIC_POSITIONS (bohr)
Au      -1.647240576   1.744890523  -0.789075477
Au      -0.756053230   3.716062081   3.819324693
Au       3.126771287   1.283503087   0.607804377
Au       4.081295370   4.127759322   5.426213209
Au       7.550470150   1.330890987   2.954725198

     Writing output data file pwscf.save
     Check: negative starting charge=   -0.006337
     NEW-OLD atomic charge density approx. for the potential
     Check: negative starting charge=   -0.006332

[...]

     energy   old            =    -329.4879688401 Ry
     energy   new            =    -329.4885597250 Ry

     CASE: energy  _new < energy  _old

     WARNING: bfgs curvature condition failed, Theta= 0.945
     new trust radius        =       0.0198344217 bohr
     new conv_thr            =       0.0000000006 Ry

[...]

     WARNING: bfgs curvature condition failed, Theta= 0.695
     new trust radius        =       0.0394392009 bohr
     new conv_thr            =            1.0E-10 Ry

[...]

     WARNING: info= 13 for Hessian
     new trust radius        =       0.0157159526 bohr
     new conv_thr            =            1.0E-10 Ry

[...]

     WARNING: info= 13 for Hessian
     new trust radius        =       0.0156070280 bohr
     new conv_thr            =            1.0E-10 Ry

[...]

     WARNING: info= 13 for Hessian
     uphill step: resetting bfgs history

[...]

     number of scf cycles    =  41
     number of bfgs steps    =  40

     energy   old            =    -329.4925618695 Ry
     energy   new            =    -329.4925683116 Ry

     CASE: energy  _new < energy  _old

     new trust radius        =       0.0051262087 bohr
     new conv_thr            =            1.0E-10 Ry

ATOMIC_POSITIONS (bohr)
Au      -1.614037131   1.647348120  -0.965921964
Au      -0.761032509   4.075613111   3.517337595
Au       3.083895969   1.304702542   0.867364554
Au       3.989726335   3.896730630   5.558323807
Au       7.656690337   1.278711598   3.041888007

     Writing output data file pwscf.save
     Check: negative starting charge=   -0.006358
     NEW-OLD atomic charge density approx. for the potential
     Check: negative starting charge=   -0.006357

     negative rho (up, down):  2.173E-07 0.000E+00

     Self-consistent Calculation

[...]

     Threshold (ethr) on eigenvalues was too large:
     Diagonalizing with lowered threshold

     Davidson diagonalization with overlap
     ethr =  9.21E-09,  avg # of iterations =  2.0

[...]

     total energy              =    -329.49257752 Ry
     Harris-Foulkes estimate   =    -329.49257752 Ry
     estimated scf accuracy    <          1.1E-10 Ry

     iteration #  9     ecut=    30.00 Ry     beta=0.70
     Davidson diagonalization with overlap
     ethr =  1.97E-13,  avg # of iterations =  3.0

     End of self-consistent calculation

          k = 0.0000 0.0000 0.0000 ( 22119 PWs)   bands (ev):

    -8.4962  -7.7711  -7.6530  -7.2325  -6.8482  -6.8052  -6.6107  -6.4774
    -6.3107  -6.0706  -5.9527  -5.7674  -5.7251  -5.6844  -5.4584  -5.3631
    -5.3135  -5.2486  -5.1951  -5.1759  -5.1735  -5.1222  -5.0027  -4.9184
    -4.8315  -4.7412  -4.4762  -3.7777  -2.4671  -2.1954  -0.5382  -0.1624
     0.4847   0.8270

     the Fermi energy is    -3.7452 ev

!    total energy              =    -329.49257751 Ry
     Harris-Foulkes estimate   =    -329.49257752 Ry
     estimated scf accuracy    <          2.2E-11 Ry

     The total energy is the sum of the following terms:

     one-electron contribution =    -606.97975018 Ry
     hartree contribution      =     324.92552418 Ry
     xc contribution           =     -51.39807231 Ry
     ewald contribution        =       3.96405557 Ry
     smearing contrib. (-TS)   =      -0.00433478 Ry

     convergence has been achieved in   9 iterations

     Forces acting on atoms (Ry/au):

     atom    1 type  1   force =    -0.00054242    0.00030612   -0.00020676
     atom    2 type  1   force =    -0.00002049    0.00079861   -0.00021816
     atom    3 type  1   force =     0.00078230    0.00011247    0.00018895
     atom    4 type  1   force =     0.00059555   -0.00093944    0.00000000
     atom    5 type  1   force =    -0.00081494   -0.00027775    0.00023596

     Total force =     0.001952     Total SCF correction =     0.000019

     bfgs converged in  42 scf cycles and  41 bfgs steps
     (criteria: energy <  1.0E-04, force <  1.0E-03)

     End of BFGS Geometry Optimization

     Final energy   =    -329.4925775092 Ry
Begin final coordinates

ATOMIC_POSITIONS (bohr)
Au      -1.614037131   1.647348120  -0.965921964
Au      -0.761032509   4.075613111   3.517337595
Au       3.083895969   1.304702542   0.867364554
Au       3.989726335   3.896730630   5.558323807
Au       7.656690337   1.278711598   3.041888007
End final coordinates

     Writing output data file pwscf.save

     General routines

     Parallel routines

   This run was terminated on:  16: 8: 6   3Aug2017

   JOB DONE.