     Program PWSCF v.6.0 (svn rev. 13079) starts on  3Aug2017 at 21:13:22

     Current dimensions of program PWSCF are:
     Max number of different atomic species (ntypx) = 10
     Max number of k-points (npk) =  40000
     Max angular momentum in pseudopotentials (lmaxx) =  3
     Message from routine iosys:
     pot_extrapolation='second-order' not available, using 'atomic'
     Message from routine iosys:
     wfc_extrapolation='second-order' not available, using 'atomic'

     Subspace diagonalization in iterative solution of the eigenvalue problem:
     a serial algorithm will be used

     bravais-lattice index     =            1
     lattice parameter (alat)  =      20.0000  a.u.
     unit-cell volume          =    8000.0000 (a.u.)^3
     number of atoms/cell      =            5
     number of atomic types    =            1
     number of electrons       =        55.00
     number of Kohn-Sham states=           34
     kinetic-energy cutoff     =      30.0000  Ry
     charge density cutoff     =     120.0000  Ry
     convergence threshold     =      1.0E-08
     mixing beta               =       0.7000
     number of iterations used =            8  plain     mixing
     Exchange-correlation      = BLYP ( 1  3  1  3 0 0)
     nstep                     =           50

     celldm(1)=  20.000000  celldm(2)=   0.000000  celldm(3)=   0.000000
     celldm(4)=   0.000000  celldm(5)=   0.000000  celldm(6)=   0.000000

     crystal axes: (cart. coord. in units of alat)
               a(1) = (   1.000000   0.000000   0.000000 )
               a(2) = (   0.000000   1.000000   0.000000 )
               a(3) = (   0.000000   0.000000   1.000000 )

     reciprocal axes: (cart. coord. in units 2 pi/alat)
               b(1) = (  1.000000  0.000000  0.000000 )
               b(2) = (  0.000000  1.000000  0.000000 )
               b(3) = (  0.000000  0.000000  1.000000 )

     PseudoPot. # 1 for Au read from file:
     ./Au.blyp-d-hgh.UPF
     MD5 check sum: c10d8bae01f806c36a1643a1c69a8479
     Pseudo is Norm-conserving, Zval = 11.0
     Generated in analytical, separable form
     Using radial grid of 1279 points,  6 beta functions with:
                l(1) =   0
                l(2) =   0
                l(3) =   1
                l(4) =   1
                l(5) =   2
                l(6) =   2

     atomic species   valence    mass     pseudopotential
        Au            11.00    28.08600     Au( 1.00)

     No symmetry found

   Cartesian axes

     site n.     atom                  positions (alat units)
         1           Au  tau(   1) = (  -0.1016479   0.1024088  -0.0436090  )
         2           Au  tau(   2) = (  -0.0353210   0.1853359   0.1857805  )
         3           Au  tau(   3) = (   0.1505881   0.0609649   0.0200529  )
         4           Au  tau(   4) = (   0.2028143   0.1868583   0.2834195  )
         5           Au  tau(   5) = (   0.3865696   0.0604285   0.1573265  )

     number of k points=     1  Marzari-Vanderbilt smearing, width (Ry)=  0.0250
                       cart. coord. in units 2pi/alat
        k(    1) = (   0.0000000   0.0000000   0.0000000), wk =   2.0000000

     Initial potential from superposition of free atoms
     Check: negative starting charge=   -0.006231

     starting charge   54.99940, renormalised to   55.00000

     negative rho (up, down):  6.231E-03 0.000E+00
     Starting wfc are   45 randomized atomic wfcs

     Self-consistent Calculation

     iteration #  1     ecut=    30.00 Ry     beta=0.70
     Davidson diagonalization with overlap
     ethr =  1.00E-02,  avg # of iterations =  3.0

     Threshold (ethr) on eigenvalues was too large:
     Diagonalizing with lowered threshold

     Davidson diagonalization with overlap
     ethr =  3.78E-04,  avg # of iterations =  5.0

     negative rho (up, down):  8.388E-04 0.000E+00

     total energy              =    -329.37322680 Ry
     Harris-Foulkes estimate   =    -329.52937836 Ry
     estimated scf accuracy    <       0.26225255 Ry

[...]

     End of self-consistent calculation

          k = 0.0000 0.0000 0.0000 ( 22119 PWs)   bands (ev):

    -8.0353  -7.4859  -7.4618  -7.0995  -6.8217  -6.6250  -6.5224  -6.3590
    -6.2287  -5.9861  -5.8070  -5.6740  -5.6137  -5.5851  -5.4515  -5.4130
    -5.3384  -5.2184  -5.1959  -5.1738  -5.1502  -5.1399  -5.1149  -4.9377
    -4.8516  -4.7485  -4.4491  -3.7930  -2.7698  -2.1449  -0.4906  -0.1902
     0.3661   0.7314

     the Fermi energy is    -3.7660 ev

!    total energy              =    -329.47698363 Ry
     Harris-Foulkes estimate   =    -329.47698365 Ry
     estimated scf accuracy    <          7.4E-09 Ry

     The total energy is the sum of the following terms:

     one-electron contribution =    -590.86351229 Ry
     hartree contribution      =     316.97323386 Ry
     xc contribution           =     -51.35033132 Ry
     ewald contribution        =      -4.23321667 Ry
     smearing contrib. (-TS)   =      -0.00315720 Ry

     convergence has been achieved in  12 iterations

     Forces acting on atoms (Ry/au):

     atom    1 type  1   force =     0.01751106   -0.00684939   -0.00292743
     atom    2 type  1   force =     0.00826343   -0.00103123   -0.00065458
     atom    3 type  1   force =     0.00152574    0.01276290    0.02681196
     atom    4 type  1   force =     0.00114344   -0.00533543   -0.00882797
     atom    5 type  1   force =    -0.02844366    0.00045315   -0.01440198

     Total force =     0.049400     Total SCF correction =     0.000267

     BFGS Geometry Optimization

     number of scf cycles    =   1
     number of bfgs steps    =   0

     energy   new            =    -329.4769836313 Ry

     new trust radius        =       0.0318851761 bohr
     new conv_thr            =       0.0000000100 Ry

ATOMIC_POSITIONS (bohr)
Au      -2.015446943   2.041326614  -0.875106433
Au      -0.698156574   3.705686773   3.714955424
Au       3.013287736   1.232059897   0.427869965
Au       4.057428445   3.731829567   5.659562028
Au       7.702949337   1.209022149   3.132128017

     Writing output data file pwscf.save
     Check: negative starting charge=   -0.006231
     NEW-OLD atomic charge density approx. for the potential
     Check: negative starting charge=   -0.006260

[...]

     energy   old            =    -329.4769836313 Ry
     energy   new            =    -329.4793178823 Ry

     CASE: energy  _new < energy  _old

     WARNING: bfgs curvature condition failed, Theta= 0.874
     new trust radius        =       0.0350736937 bohr
     new conv_thr            =       0.0000000023 Ry

[...]

     WARNING: bfgs curvature condition failed, Theta= 0.742
     new trust radius        =       0.0671342795 bohr
     new conv_thr            =            1.0E-10 Ry

[...]

     WARNING: info= 15 for Hessian
     new trust radius        =       0.1007014193 bohr
     new conv_thr            =            1.0E-10 Ry

[...]

     CASE: energy  _new > energy  _old

     new trust radius        =       0.0400992394 bohr
     new conv_thr            =            1.0E-10 Ry

[...]

     number of scf cycles    =  49
     number of bfgs steps    =  47

     energy   old            =    -329.4935502162 Ry
     energy   new            =    -329.4935595186 Ry

     CASE: energy  _new < energy  _old

     WARNING: info= 15 for Hessian
     new trust radius        =       0.0084331907 bohr
     new conv_thr            =            1.0E-10 Ry

ATOMIC_POSITIONS (bohr)
Au      -1.562069973   1.965933002  -1.147757225
Au      -0.728554644   4.247986316   3.397942500
Au       3.012776308   1.213856678   0.876899774
Au       3.878790818   3.644710281   5.679520391
Au       7.459119491   0.847438723   3.252803560

     Writing output data file pwscf.save
     Check: negative starting charge=   -0.006299
     NEW-OLD atomic charge density approx. for the potential
     Check: negative starting charge=   -0.006301

     negative rho (up, down):  7.413E-06 0.000E+00

     Self-consistent Calculation

[...]

     Threshold (ethr) on eigenvalues was too large:
     Diagonalizing with lowered threshold

     Davidson diagonalization with overlap
     ethr =  3.85E-08,  avg # of iterations =  1.0

[...]

     total energy              =    -329.49356570 Ry
     Harris-Foulkes estimate   =    -329.49356565 Ry
     estimated scf accuracy    <          1.0E-10 Ry

     iteration # 10     ecut=    30.00 Ry     beta=0.70
     Davidson diagonalization with overlap
     ethr =  1.89E-13,  avg # of iterations =  2.0

     End of self-consistent calculation

          k = 0.0000 0.0000 0.0000 ( 22119 PWs)   bands (ev):

    -8.4918  -7.7744  -7.6444  -7.2353  -6.8538  -6.8044  -6.6252  -6.4718
    -6.3088  -6.0633  -5.9614  -5.7642  -5.7232  -5.6800  -5.4549  -5.3602
    -5.3127  -5.2402  -5.1983  -5.1792  -5.1707  -5.1223  -5.0063  -4.9177
    -4.8380  -4.7377  -4.4739  -3.7710  -2.4405  -2.1936  -0.5233  -0.1667
     0.4641   0.7736

     the Fermi energy is    -3.7380 ev

!    total energy              =    -329.49356570 Ry
     Harris-Foulkes estimate   =    -329.49356570 Ry
     estimated scf accuracy    <          9.2E-12 Ry

     The total energy is the sum of the following terms:

     one-electron contribution =    -605.95349657 Ry
     hartree contribution      =     324.41346538 Ry
     xc contribution           =     -51.39788634 Ry
     ewald contribution        =       3.44882931 Ry
     smearing contrib. (-TS)   =      -0.00447749 Ry

     convergence has been achieved in  10 iterations

     Forces acting on atoms (Ry/au):

     atom    1 type  1   force =    -0.00059938   -0.00000944    0.00060938
     atom    2 type  1   force =    -0.00031475   -0.00026331   -0.00047212
     atom    3 type  1   force =     0.00056577    0.00098006   -0.00007502
     atom    4 type  1   force =     0.00000218    0.00010387   -0.00061269
     atom    5 type  1   force =     0.00034618   -0.00081117    0.00055045

     Total force =     0.001969     Total SCF correction =     0.000013

     bfgs converged in  50 scf cycles and  48 bfgs steps
     (criteria: energy <  1.0E-04, force <  1.0E-03)

     End of BFGS Geometry Optimization

     Final energy   =    -329.4935657027 Ry
Begin final coordinates

ATOMIC_POSITIONS (bohr)
Au      -1.562069973   1.965933002  -1.147757225
Au      -0.728554644   4.247986316   3.397942500
Au       3.012776308   1.213856678   0.876899774
Au       3.878790818   3.644710281   5.679520391
Au       7.459119491   0.847438723   3.252803560
End final coordinates

     Writing output data file pwscf.save

     General routines

     Parallel routines

   This run was terminated on:  21:15:35   3Aug2017

   JOB DONE.