     Program PWSCF v.6.0 (svn rev. 13079) starts on  4Aug2017 at  3:26:45

     Current dimensions of program PWSCF are:
     Max number of different atomic species (ntypx) = 10
     Max number of k-points (npk) =  40000
     Max angular momentum in pseudopotentials (lmaxx) =  3
     Message from routine iosys:
     pot_extrapolation='second-order' not available, using 'atomic'
     Message from routine iosys:
     wfc_extrapolation='second-order' not available, using 'atomic'

     Subspace diagonalization in iterative solution of the eigenvalue problem:
     a serial algorithm will be used

     bravais-lattice index     =            1
     lattice parameter (alat)  =      20.0000  a.u.
     unit-cell volume          =    8000.0000 (a.u.)^3
     number of atoms/cell      =            5
     number of atomic types    =            1
     number of electrons       =        55.00
     number of Kohn-Sham states=           34
     kinetic-energy cutoff     =      30.0000  Ry
     charge density cutoff     =     120.0000  Ry
     convergence threshold     =      1.0E-08
     mixing beta               =       0.7000
     number of iterations used =            8  plain     mixing
     Exchange-correlation      = BLYP ( 1  3  1  3 0 0)
     nstep                     =           50

     celldm(1)=  20.000000  celldm(2)=   0.000000  celldm(3)=   0.000000
     celldm(4)=   0.000000  celldm(5)=   0.000000  celldm(6)=   0.000000

     crystal axes: (cart. coord. in units of alat)
               a(1) = (   1.000000   0.000000   0.000000 )
               a(2) = (   0.000000   1.000000   0.000000 )
               a(3) = (   0.000000   0.000000   1.000000 )

     reciprocal axes: (cart. coord. in units 2 pi/alat)
               b(1) = (  1.000000  0.000000  0.000000 )
               b(2) = (  0.000000  1.000000  0.000000 )
               b(3) = (  0.000000  0.000000  1.000000 )

     PseudoPot. # 1 for Au read from file:
     ./Au.blyp-d-hgh.UPF
     MD5 check sum: c10d8bae01f806c36a1643a1c69a8479
     Pseudo is Norm-conserving, Zval = 11.0
     Generated in analytical, separable form
     Using radial grid of 1279 points,  6 beta functions with:
                l(1) =   0
                l(2) =   0
                l(3) =   1
                l(4) =   1
                l(5) =   2
                l(6) =   2

     atomic species   valence    mass     pseudopotential
        Au            11.00    28.08600     Au( 1.00)

     No symmetry found

   Cartesian axes

     site n.     atom                  positions (alat units)
         1           Au  tau(   1) = (  -0.1046269   0.0653685  -0.0350058  )
         2           Au  tau(   2) = (   0.0106725   0.1307551   0.1934684  )
         3           Au  tau(   3) = (   0.1404408   0.0834556  -0.0123079  )
         4           Au  tau(   4) = (   0.2198035   0.2513047   0.2854141  )
         5           Au  tau(   5) = (   0.3278716   0.0604242   0.1398156  )

     number of k points=     1  Marzari-Vanderbilt smearing, width (Ry)=  0.0250
                       cart. coord. in units 2pi/alat
        k(    1) = (   0.0000000   0.0000000   0.0000000), wk =   2.0000000

     Initial potential from superposition of free atoms
     Check: negative starting charge=   -0.006329

     starting charge   54.99940, renormalised to   55.00000

     negative rho (up, down):  6.329E-03 0.000E+00
     Starting wfc are   45 randomized atomic wfcs

     Self-consistent Calculation

     iteration #  1     ecut=    30.00 Ry     beta=0.70
     Davidson diagonalization with overlap
     ethr =  1.00E-02,  avg # of iterations =  3.0

     Threshold (ethr) on eigenvalues was too large:
     Diagonalizing with lowered threshold

     Davidson diagonalization with overlap
     ethr =  4.02E-04,  avg # of iterations =  7.0

     negative rho (up, down):  8.371E-04 0.000E+00

     total energy              =    -329.35505604 Ry
     Harris-Foulkes estimate   =    -329.51990445 Ry
     estimated scf accuracy    <       0.27674132 Ry

[...]

     End of self-consistent calculation

          k = 0.0000 0.0000 0.0000 ( 22119 PWs)   bands (ev):

    -8.4530  -7.8689  -7.7255  -7.3321  -6.9277  -6.8768  -6.7066  -6.4546
    -6.2500  -5.9810  -5.8301  -5.7855  -5.6968  -5.5726  -5.5417  -5.4831
    -5.2347  -5.1918  -5.1635  -5.1342  -5.1191  -5.0207  -4.9587  -4.8798
    -4.8019  -4.5609  -4.3026  -3.6843  -2.5008  -2.1638  -0.3768  -0.1413
     0.3679   0.5182

     the Fermi energy is    -3.6650 ev

!    total energy              =    -329.46348775 Ry
     Harris-Foulkes estimate   =    -329.46348778 Ry
     estimated scf accuracy    <          2.7E-09 Ry

     The total energy is the sum of the following terms:

     one-electron contribution =    -611.24817406 Ry
     hartree contribution      =     327.13161954 Ry
     xc contribution           =     -51.43898744 Ry
     ewald contribution        =       6.09358377 Ry
     smearing contrib. (-TS)   =      -0.00152957 Ry

     convergence has been achieved in  12 iterations

     Forces acting on atoms (Ry/au):

     atom    1 type  1   force =    -0.02214263    0.00143310    0.00316540
     atom    2 type  1   force =    -0.01462460    0.01310905    0.01651611
     atom    3 type  1   force =     0.00792810   -0.00690184   -0.04352701
     atom    4 type  1   force =    -0.00227507   -0.01497918   -0.00262598
     atom    5 type  1   force =     0.03111420    0.00733886    0.02647147

     Total force =     0.071590     Total SCF correction =     0.000212

     BFGS Geometry Optimization

     number of scf cycles    =   1
     number of bfgs steps    =   0

     energy   new            =    -329.4634877526 Ry

     new trust radius        =       0.0447782354 bohr
     new conv_thr            =       0.0000000100 Ry

ATOMIC_POSITIONS (bohr)
Au      -2.114680628   1.308804099  -0.696951595
Au       0.198825400   2.628210052   3.885884110
Au       2.816744099   1.662210165  -0.289685006
Au       4.393794926   5.011113821   5.705656022
Au       6.588545203   1.215823863   2.822782469

     Writing output data file pwscf.save
     Check: negative starting charge=   -0.006329
     NEW-OLD atomic charge density approx. for the potential
     Check: negative starting charge=   -0.006290

[...]

     energy   old            =    -329.4634877526 Ry
     energy   new            =    -329.4678239936 Ry

     CASE: energy  _new < energy  _old

[...]

     WARNING: bfgs curvature condition failed, Theta= 0.829
     new trust radius        =       0.0686882127 bohr
     new conv_thr            =       0.0000000001 Ry

[...]

     WARNING: info= 13 for Hessian
     new trust radius        =       0.1828120055 bohr
     new conv_thr            =       0.0000000007 Ry

[...]

     iteration #  1     ecut=    30.00 Ry     beta=0.70
     Davidson diagonalization with overlap
     c_bands:  1 eigenvalues not converged
     ethr =  1.00E-06,  avg # of iterations = 20.0

[...]

     CASE: energy  _new > energy  _old

     new trust radius        =       0.0586612450 bohr
     new conv_thr            =       0.0000000007 Ry

[...]

     Threshold (ethr) on eigenvalues was too large:
     Diagonalizing with lowered threshold

     Davidson diagonalization with overlap
     ethr =  6.40E-08,  avg # of iterations =  1.0

[...]

     WARNING: info= 15 for Hessian

     WARNING: bfgs curvature condition failed, Theta= 0.243
     new trust radius        =       0.0526871941 bohr
     new conv_thr            =            1.0E-10 Ry

[...]

     Self-consistent Calculation

[...]

     total energy              =    -329.48964174 Ry
     Harris-Foulkes estimate   =    -329.48964174 Ry
     estimated scf accuracy    <          1.9E-10 Ry

     iteration # 11     ecut=    30.00 Ry     beta=0.70
     Davidson diagonalization with overlap
     ethr =  3.46E-13,  avg # of iterations =  2.0

     End of self-consistent calculation

          k = 0.0000 0.0000 0.0000 ( 22119 PWs)   bands (ev):

    -8.2891  -7.6017  -7.5495  -7.1662  -7.0268  -6.6838  -6.5141  -6.4030
    -6.2978  -5.9891  -5.9333  -5.7065  -5.6700  -5.6173  -5.4057  -5.3537
    -5.3454  -5.2395  -5.2174  -5.1882  -5.1653  -5.1243  -5.0099  -4.9642
    -4.9099  -4.6004  -4.5253  -3.7779  -2.5148  -2.1926  -0.4970  -0.2347
     0.3336   0.7140

     the Fermi energy is    -3.7444 ev

!    total energy              =    -329.48964174 Ry
     Harris-Foulkes estimate   =    -329.48964174 Ry
     estimated scf accuracy    <          3.0E-11 Ry

     The total energy is the sum of the following terms:

     one-electron contribution =    -596.65497835 Ry
     hartree contribution      =     319.81349544 Ry
     xc contribution           =     -51.37354129 Ry
     ewald contribution        =      -1.27019782 Ry
     smearing contrib. (-TS)   =      -0.00441972 Ry

     convergence has been achieved in  11 iterations

     Forces acting on atoms (Ry/au):

     atom    1 type  1   force =     0.00702259    0.00037957    0.00598521
     atom    2 type  1   force =     0.00933959    0.00185484   -0.00313423
     atom    3 type  1   force =    -0.00279183    0.00018151    0.00166715
     atom    4 type  1   force =    -0.00431105   -0.00669740   -0.00723166
     atom    5 type  1   force =    -0.00925931    0.00428147    0.00271352

     Total force =     0.020580     Total SCF correction =     0.000021

     number of scf cycles    =  50
     number of bfgs steps    =  48

     energy   old            =    -329.4895801117 Ry
     energy   new            =    -329.4896417447 Ry

     CASE: energy  _new < energy  _old

     WARNING: info= 15 for Hessian
     new trust radius        =       0.0790307911 bohr
     new conv_thr            =            1.0E-10 Ry

ATOMIC_POSITIONS (bohr)
Au      -2.141533836   1.391491161  -0.775482215
Au       0.543469750   3.109702617   3.270681866
Au       2.992474018   0.596659777  -0.624788694
Au       4.074769576   4.806052922   6.579492223
Au       6.414049493   1.922255523   2.977782819

     Writing output data file pwscf.save
     Check: negative starting charge=   -0.006231
     NEW-OLD atomic charge density approx. for the potential
     Check: negative starting charge=   -0.006225

     negative rho (up, down):  9.259E-04 0.000E+00

     Writing output data file pwscf.save

     General routines

     Parallel routines

   This run was terminated on:   3:29: 1   4Aug2017

   JOB DONE.