     Program PWSCF v.6.0 (svn rev. 13079) starts on  4Aug2017 at  7: 0: 1

     Current dimensions of program PWSCF are:
     Max number of different atomic species (ntypx) = 10
     Max number of k-points (npk) =  40000
     Max angular momentum in pseudopotentials (lmaxx) =  3
     Message from routine iosys:
     pot_extrapolation='second-order' not available, using 'atomic'
     Message from routine iosys:
     wfc_extrapolation='second-order' not available, using 'atomic'

     Subspace diagonalization in iterative solution of the eigenvalue problem:
     a serial algorithm will be used

     bravais-lattice index     =            1
     lattice parameter (alat)  =      20.0000  a.u.
     unit-cell volume          =    8000.0000 (a.u.)^3
     number of atoms/cell      =            5
     number of atomic types    =            1
     number of electrons       =        55.00
     number of Kohn-Sham states=           34
     kinetic-energy cutoff     =      30.0000  Ry
     charge density cutoff     =     120.0000  Ry
     convergence threshold     =      1.0E-08
     mixing beta               =       0.7000
     number of iterations used =            8  plain     mixing
     Exchange-correlation      = BLYP ( 1  3  1  3 0 0)
     nstep                     =           50

     celldm(1)=  20.000000  celldm(2)=   0.000000  celldm(3)=   0.000000
     celldm(4)=   0.000000  celldm(5)=   0.000000  celldm(6)=   0.000000

     crystal axes: (cart. coord. in units of alat)
               a(1) = (   1.000000   0.000000   0.000000 )
               a(2) = (   0.000000   1.000000   0.000000 )
               a(3) = (   0.000000   0.000000   1.000000 )

     reciprocal axes: (cart. coord. in units 2 pi/alat)
               b(1) = (  1.000000  0.000000  0.000000 )
               b(2) = (  0.000000  1.000000  0.000000 )
               b(3) = (  0.000000  0.000000  1.000000 )

     PseudoPot. # 1 for Au read from file:
     ./Au.blyp-d-hgh.UPF
     MD5 check sum: c10d8bae01f806c36a1643a1c69a8479
     Pseudo is Norm-conserving, Zval = 11.0
     Generated in analytical, separable form
     Using radial grid of 1279 points,  6 beta functions with:
                l(1) =   0
                l(2) =   0
                l(3) =   1
                l(4) =   1
                l(5) =   2
                l(6) =   2

     atomic species   valence    mass     pseudopotential
        Au            11.00    28.08600     Au( 1.00)

     No symmetry found

   Cartesian axes

     site n.     atom                  positions (alat units)
         1           Au  tau(   1) = (  -0.0928651   0.0115680   0.0041425  )
         2           Au  tau(   2) = (  -0.0131441   0.1729634   0.1921048  )
         3           Au  tau(   3) = (   0.0892456   0.1939531  -0.0326094  )
         4           Au  tau(   4) = (   0.2562646   0.2356330   0.1839022  )
         5           Au  tau(   5) = (   0.3579549   0.0010268   0.2341661  )

     number of k points=     1  Marzari-Vanderbilt smearing, width (Ry)=  0.0250
                       cart. coord. in units 2pi/alat
        k(    1) = (   0.0000000   0.0000000   0.0000000), wk =   2.0000000

     Initial potential from superposition of free atoms
     Check: negative starting charge=   -0.005583

     starting charge   54.99940, renormalised to   55.00000

     negative rho (up, down):  5.583E-03 0.000E+00
     Starting wfc are   45 randomized atomic wfcs

     Self-consistent Calculation

     iteration #  1     ecut=    30.00 Ry     beta=0.70
     Davidson diagonalization with overlap
     ethr =  1.00E-02,  avg # of iterations =  3.0

     Threshold (ethr) on eigenvalues was too large:
     Diagonalizing with lowered threshold

     Davidson diagonalization with overlap
     ethr =  4.33E-04,  avg # of iterations =  3.0

     negative rho (up, down):  6.481E-04 0.000E+00

     total energy              =    -329.29283894 Ry
     Harris-Foulkes estimate   =    -329.47285029 Ry
     estimated scf accuracy    <       0.28949493 Ry

[...]

     End of self-consistent calculation

          k = 0.0000 0.0000 0.0000 ( 22119 PWs)   bands (ev):

    -8.3336  -7.6940  -7.1407  -6.9832  -6.9009  -6.7759  -6.4942  -6.4159
    -6.0432  -6.0354  -5.7898  -5.7760  -5.5795  -5.5168  -5.4125  -5.3787
    -5.2965  -5.2494  -5.1535  -5.0343  -4.8617  -4.8066  -4.7600  -4.7597
    -4.6706  -4.6217  -4.4389  -3.5026  -3.2268  -2.2457  -0.4579   0.0411
     0.1791   0.2821

     the Fermi energy is    -3.4873 ev

!    total energy              =    -329.40956591 Ry
     Harris-Foulkes estimate   =    -329.40956593 Ry
     estimated scf accuracy    <          7.8E-09 Ry

     The total energy is the sum of the following terms:

     one-electron contribution =    -570.60319791 Ry
     hartree contribution      =     306.96227846 Ry
     xc contribution           =     -51.33931290 Ry
     ewald contribution        =     -14.41807937 Ry
     smearing contrib. (-TS)   =      -0.01125419 Ry

     convergence has been achieved in  13 iterations

     Forces acting on atoms (Ry/au):

     atom    1 type  1   force =    -0.00482420    0.00529628   -0.00137932
     atom    2 type  1   force =     0.00391434   -0.00445192    0.01748018
     atom    3 type  1   force =     0.01616484    0.00174904   -0.00870748
     atom    4 type  1   force =    -0.00835675   -0.02755893   -0.00476369
     atom    5 type  1   force =    -0.00689823    0.02496554   -0.00262969

     Total force =     0.047581     Total SCF correction =     0.000306

     BFGS Geometry Optimization

     number of scf cycles    =   1
     number of bfgs steps    =   0

     energy   new            =    -329.4095659092 Ry

     new trust radius        =       0.0291894250 bohr
     new conv_thr            =       0.0000000100 Ry

ATOMIC_POSITIONS (bohr)
Au      -1.862126198   0.236657278   0.081469680
Au      -0.258968658   3.454815076   3.859577181
Au       1.801077835   3.880812039  -0.660896484
Au       5.116936254   4.685101071   3.673280308
Au       7.152199766   0.045500535   4.680693315

     Writing output data file pwscf.save
     Check: negative starting charge=   -0.005583
     NEW-OLD atomic charge density approx. for the potential
     Check: negative starting charge=   -0.005585

[...]

     energy   old            =    -329.4095659092 Ry
     energy   new            =    -329.4116512951 Ry

     CASE: energy  _new < energy  _old

     WARNING: bfgs curvature condition failed, Theta= 0.949
     new trust radius        =       0.0321083675 bohr
     new conv_thr            =       0.0000000021 Ry

[...]

     CASE: energy  _new > energy  _old

[...]

     iteration #  1     ecut=    30.00 Ry     beta=0.70
     Davidson diagonalization with overlap
     c_bands:  1 eigenvalues not converged
     ethr =  1.00E-06,  avg # of iterations = 20.0

[...]

     iteration #  1     ecut=    30.00 Ry     beta=0.70
     Davidson diagonalization with overlap
     c_bands:  1 eigenvalues not converged
     ethr =  1.00E-06,  avg # of iterations = 20.0

[...]

     WARNING: bfgs curvature condition failed, Theta= 0.960
     new trust radius        =       0.0064225104 bohr
     new conv_thr            =            1.0E-10 Ry

[...]

     Self-consistent Calculation

[...]

     Threshold (ethr) on eigenvalues was too large:
     Diagonalizing with lowered threshold

     Davidson diagonalization with overlap
     ethr =  7.75E-08,  avg # of iterations =  1.0

[...]

     total energy              =    -329.45397495 Ry
     Harris-Foulkes estimate   =    -329.45397497 Ry
     estimated scf accuracy    <          1.0E-10 Ry

     iteration # 10     ecut=    30.00 Ry     beta=0.70
     Davidson diagonalization with overlap
     ethr =  1.83E-13,  avg # of iterations =  3.0

     End of self-consistent calculation

          k = 0.0000 0.0000 0.0000 ( 22119 PWs)   bands (ev):

    -8.6539  -8.1150  -7.6832  -7.3360  -6.9593  -6.8720  -6.8112  -6.4295
    -6.3892  -5.9329  -5.9170  -5.8916  -5.8116  -5.7429  -5.5603  -5.5419
    -5.4687  -5.4149  -5.3377  -5.2752  -5.1675  -5.0658  -4.8438  -4.8420
    -4.7533  -4.7066  -4.5119  -3.6954  -3.3195  -1.7175  -0.5831  -0.2306
     0.0685   0.6943

     the Fermi energy is    -3.6668 ev

!    total energy              =    -329.45397495 Ry
     Harris-Foulkes estimate   =    -329.45397495 Ry
     estimated scf accuracy    <          2.3E-11 Ry

     The total energy is the sum of the following terms:

     one-electron contribution =    -572.73068579 Ry
     hartree contribution      =     307.65542402 Ry
     xc contribution           =     -51.35397829 Ry
     ewald contribution        =     -13.01641809 Ry
     smearing contrib. (-TS)   =      -0.00831679 Ry

     convergence has been achieved in  10 iterations

     Forces acting on atoms (Ry/au):

     atom    1 type  1   force =     0.00137796    0.00128827    0.00112371
     atom    2 type  1   force =    -0.00229945   -0.00054145    0.00008517
     atom    3 type  1   force =     0.00006567   -0.00040102    0.00043079
     atom    4 type  1   force =     0.00219408    0.00028153   -0.00255263
     atom    5 type  1   force =    -0.00133826   -0.00062732    0.00091296

     Total force =     0.005019     Total SCF correction =     0.000022

     number of scf cycles    =  50
     number of bfgs steps    =  48

     energy   old            =    -329.4539339057 Ry
     energy   new            =    -329.4539749533 Ry

     CASE: energy  _new < energy  _old

     new trust radius        =       0.0197026883 bohr
     new conv_thr            =            1.0E-10 Ry

ATOMIC_POSITIONS (bohr)
Au      -3.129394971   2.165157225  -0.637936864
Au      -0.156654110   1.640472327   3.402543120
Au       2.039201851   3.455548224  -1.044194561
Au       4.815448691   2.774320262   3.285861663
Au       8.380517540   2.267387963   6.627850642

     Writing output data file pwscf.save
     Check: negative starting charge=   -0.006068
     NEW-OLD atomic charge density approx. for the potential
     Check: negative starting charge=   -0.006071

     negative rho (up, down):  4.329E-05 0.000E+00

     Writing output data file pwscf.save

     General routines

     Parallel routines

   This run was terminated on:   7: 2:27   4Aug2017

   JOB DONE.