     Program PWSCF v.6.0 (svn rev. 13079) starts on  4Aug2017 at  0:41: 5

     Current dimensions of program PWSCF are:
     Max number of different atomic species (ntypx) = 10
     Max number of k-points (npk) =  40000
     Max angular momentum in pseudopotentials (lmaxx) =  3
     Message from routine iosys:
     pot_extrapolation='second-order' not available, using 'atomic'
     Message from routine iosys:
     wfc_extrapolation='second-order' not available, using 'atomic'

     Subspace diagonalization in iterative solution of the eigenvalue problem:
     a serial algorithm will be used

     bravais-lattice index     =            1
     lattice parameter (alat)  =      20.0000  a.u.
     unit-cell volume          =    8000.0000 (a.u.)^3
     number of atoms/cell      =            5
     number of atomic types    =            1
     number of electrons       =        55.00
     number of Kohn-Sham states=           34
     kinetic-energy cutoff     =      30.0000  Ry
     charge density cutoff     =     120.0000  Ry
     convergence threshold     =      1.0E-08
     mixing beta               =       0.7000
     number of iterations used =            8  plain     mixing
     Exchange-correlation      = BLYP ( 1  3  1  3 0 0)
     nstep                     =           50

     celldm(1)=  20.000000  celldm(2)=   0.000000  celldm(3)=   0.000000
     celldm(4)=   0.000000  celldm(5)=   0.000000  celldm(6)=   0.000000

     crystal axes: (cart. coord. in units of alat)
               a(1) = (   1.000000   0.000000   0.000000 )
               a(2) = (   0.000000   1.000000   0.000000 )
               a(3) = (   0.000000   0.000000   1.000000 )

     reciprocal axes: (cart. coord. in units 2 pi/alat)
               b(1) = (  1.000000  0.000000  0.000000 )
               b(2) = (  0.000000  1.000000  0.000000 )
               b(3) = (  0.000000  0.000000  1.000000 )

     PseudoPot. # 1 for Au read from file:
     ./Au.blyp-d-hgh.UPF
     MD5 check sum: c10d8bae01f806c36a1643a1c69a8479
     Pseudo is Norm-conserving, Zval = 11.0
     Generated in analytical, separable form
     Using radial grid of 1279 points,  6 beta functions with:
                l(1) =   0
                l(2) =   0
                l(3) =   1
                l(4) =   1
                l(5) =   2
                l(6) =   2

     atomic species   valence    mass     pseudopotential
        Au            11.00    28.08600     Au( 1.00)

     No symmetry found

   Cartesian axes

     site n.     atom                  positions (alat units)
         1           Au  tau(   1) = (  -0.1046196   0.1924542  -0.0151593  )
         2           Au  tau(   2) = (  -0.0143169   0.1301069   0.2207193  )
         3           Au  tau(   3) = (   0.1450700   0.1228047   0.0023787  )
         4           Au  tau(   4) = (   0.2111053   0.2239959   0.2749611  )
         5           Au  tau(   5) = (   0.3530467   0.0421182   0.1209359  )

     number of k points=     1  Marzari-Vanderbilt smearing, width (Ry)=  0.0250
                       cart. coord. in units 2pi/alat
        k(    1) = (   0.0000000   0.0000000   0.0000000), wk =   2.0000000

     Initial potential from superposition of free atoms
     Check: negative starting charge=   -0.006190

     starting charge   54.99940, renormalised to   55.00000

     negative rho (up, down):  6.190E-03 0.000E+00
     Starting wfc are   45 randomized atomic wfcs

     Self-consistent Calculation

     iteration #  1     ecut=    30.00 Ry     beta=0.70
     Davidson diagonalization with overlap
     ethr =  1.00E-02,  avg # of iterations =  3.0

     Threshold (ethr) on eigenvalues was too large:
     Diagonalizing with lowered threshold

     Davidson diagonalization with overlap
     ethr =  3.44E-04,  avg # of iterations =  7.0

     negative rho (up, down):  8.354E-04 0.000E+00

     total energy              =    -329.36892135 Ry
     Harris-Foulkes estimate   =    -329.51369690 Ry
     estimated scf accuracy    <       0.24752931 Ry

[...]

     End of self-consistent calculation

          k = 0.0000 0.0000 0.0000 ( 22119 PWs)   bands (ev):

    -8.1065  -7.5432  -7.4665  -7.0816  -6.8860  -6.6493  -6.4918  -6.3637
    -6.0709  -5.8602  -5.7534  -5.7163  -5.6564  -5.5960  -5.5004  -5.4513
    -5.3093  -5.2115  -5.1343  -5.1068  -5.0834  -5.0280  -4.9705  -4.8988
    -4.8512  -4.5452  -4.3710  -3.7739  -2.5012  -2.3956  -0.2584  -0.1507
     0.3284   0.5888

     the Fermi energy is    -3.7656 ev

!    total energy              =    -329.46397510 Ry
     Harris-Foulkes estimate   =    -329.46397511 Ry
     estimated scf accuracy    <          3.4E-09 Ry

     The total energy is the sum of the following terms:

     one-electron contribution =    -600.88186229 Ry
     hartree contribution      =     322.05488732 Ry
     xc contribution           =     -51.37260902 Ry
     ewald contribution        =       0.73463062 Ry
     smearing contrib. (-TS)   =       0.00097827 Ry

     convergence has been achieved in  12 iterations

     Forces acting on atoms (Ry/au):

     atom    1 type  1   force =     0.01015084   -0.00653300    0.00343976
     atom    2 type  1   force =    -0.01487890    0.00496244   -0.01378000
     atom    3 type  1   force =    -0.01138551    0.00428928    0.01311290
     atom    4 type  1   force =     0.02388813   -0.01913248   -0.01164971
     atom    5 type  1   force =    -0.00777456    0.01641376    0.00887706

     Total force =     0.048934     Total SCF correction =     0.000289

     BFGS Geometry Optimization

     number of scf cycles    =   1
     number of bfgs steps    =   0

     energy   new            =    -329.4639750996 Ry

     new trust radius        =       0.0327476767 bohr
     new conv_thr            =       0.0000000100 Ry

ATOMIC_POSITIONS (bohr)
Au      -2.082241160   3.842550996  -0.299746244
Au      -0.301216899   2.607101444   4.400604997
Au       2.890013487   2.460382279   0.060687897
Au       4.245994130   4.460785520   5.487572287
Au       7.053159442   0.858777760   2.427596063

     Writing output data file pwscf.save
     Check: negative starting charge=   -0.006190
     NEW-OLD atomic charge density approx. for the potential
     Check: negative starting charge=   -0.006214

[...]

     energy   old            =    -329.4639750996 Ry
     energy   new            =    -329.4661786355 Ry

     CASE: energy  _new < energy  _old

     WARNING: bfgs curvature condition failed, Theta= 0.951
     new trust radius        =       0.0360224444 bohr
     new conv_thr            =       0.0000000019 Ry

[...]

     WARNING: info= 12 for Hessian
     new trust radius        =       0.0146377328 bohr
     new conv_thr            =            1.0E-10 Ry

[...]

     WARNING: info= 12 for Hessian
     uphill step: resetting bfgs history

[...]

     WARNING: bfgs curvature condition failed, Theta= 0.979
     new trust radius        =       0.0065246742 bohr
     new conv_thr            =            1.0E-10 Ry

[...]

     number of scf cycles    =  40
     number of bfgs steps    =  39

     energy   old            =    -329.4920443568 Ry
     energy   new            =    -329.4920563867 Ry

     CASE: energy  _new < energy  _old

     new trust radius        =       0.0036518325 bohr
     new conv_thr            =            1.0E-10 Ry

ATOMIC_POSITIONS (bohr)
Au      -2.012513895   3.590086110  -0.548173843
Au      -0.687913801   3.950240424   4.425665683
Au       2.769447272   2.338946661   0.516963343
Au       4.256876928   3.045124187   5.657978349
Au       7.479812496   1.305200618   2.024281469

     Writing output data file pwscf.save
     Check: negative starting charge=   -0.006417
     NEW-OLD atomic charge density approx. for the potential
     Check: negative starting charge=   -0.006419

     negative rho (up, down):  1.127E-08 0.000E+00

     Self-consistent Calculation

[...]

     Threshold (ethr) on eigenvalues was too large:
     Diagonalizing with lowered threshold

     Davidson diagonalization with overlap
     ethr =  3.67E-09,  avg # of iterations =  2.0

[...]

     total energy              =    -329.49206211 Ry
     Harris-Foulkes estimate   =    -329.49206211 Ry
     estimated scf accuracy    <          4.3E-10 Ry

     iteration #  8     ecut=    30.00 Ry     beta=0.70
     Davidson diagonalization with overlap
     ethr =  6.89E-13,  avg # of iterations =  2.0

     End of self-consistent calculation

          k = 0.0000 0.0000 0.0000 ( 22119 PWs)   bands (ev):

    -8.5057  -7.7838  -7.6566  -7.2385  -6.8558  -6.8116  -6.6182  -6.4803
    -6.3084  -6.0707  -5.9580  -5.7680  -5.7248  -5.6863  -5.4579  -5.3638
    -5.3137  -5.2453  -5.2015  -5.1792  -5.1731  -5.1243  -5.0026  -4.9218
    -4.8349  -4.7348  -4.4769  -3.7805  -2.4810  -2.1789  -0.5515  -0.2259
     0.5451   0.7830

     the Fermi energy is    -3.7484 ev

!    total energy              =    -329.49206211 Ry
     Harris-Foulkes estimate   =    -329.49206211 Ry
     estimated scf accuracy    <          4.0E-11 Ry

     The total energy is the sum of the following terms:

     one-electron contribution =    -608.45851145 Ry
     hartree contribution      =     325.66188715 Ry
     xc contribution           =     -51.40138574 Ry
     ewald contribution        =       4.71019173 Ry
     smearing contrib. (-TS)   =      -0.00424380 Ry

     convergence has been achieved in   8 iterations

     Forces acting on atoms (Ry/au):

     atom    1 type  1   force =     0.00057014   -0.00004055   -0.00030808
     atom    2 type  1   force =     0.00018682   -0.00038185   -0.00024148
     atom    3 type  1   force =    -0.00050290    0.00000268    0.00077736
     atom    4 type  1   force =    -0.00062755   -0.00005680    0.00027021
     atom    5 type  1   force =     0.00037349    0.00047651   -0.00049801

     Total force =     0.001613     Total SCF correction =     0.000022

     bfgs converged in  41 scf cycles and  40 bfgs steps
     (criteria: energy <  1.0E-04, force <  1.0E-03)

     End of BFGS Geometry Optimization

     Final energy   =    -329.4920621130 Ry
Begin final coordinates

ATOMIC_POSITIONS (bohr)
Au      -2.012513895   3.590086110  -0.548173843
Au      -0.687913801   3.950240424   4.425665683
Au       2.769447272   2.338946661   0.516963343
Au       4.256876928   3.045124187   5.657978349
Au       7.479812496   1.305200618   2.024281469
End final coordinates

     Writing output data file pwscf.save

     General routines

     Parallel routines

   This run was terminated on:   0:42:51   4Aug2017

   JOB DONE.