     Program PWSCF v.6.0 (svn rev. 13079) starts on  4Aug2017 at  6:44:18

     Current dimensions of program PWSCF are:
     Max number of different atomic species (ntypx) = 10
     Max number of k-points (npk) =  40000
     Max angular momentum in pseudopotentials (lmaxx) =  3
     Message from routine iosys:
     pot_extrapolation='second-order' not available, using 'atomic'
     Message from routine iosys:
     wfc_extrapolation='second-order' not available, using 'atomic'

     Subspace diagonalization in iterative solution of the eigenvalue problem:
     a serial algorithm will be used

     bravais-lattice index     =            1
     lattice parameter (alat)  =      20.0000  a.u.
     unit-cell volume          =    8000.0000 (a.u.)^3
     number of atoms/cell      =            5
     number of atomic types    =            1
     number of electrons       =        55.00
     number of Kohn-Sham states=           34
     kinetic-energy cutoff     =      30.0000  Ry
     charge density cutoff     =     120.0000  Ry
     convergence threshold     =      1.0E-08
     mixing beta               =       0.7000
     number of iterations used =            8  plain     mixing
     Exchange-correlation      = BLYP ( 1  3  1  3 0 0)
     nstep                     =           50

     celldm(1)=  20.000000  celldm(2)=   0.000000  celldm(3)=   0.000000
     celldm(4)=   0.000000  celldm(5)=   0.000000  celldm(6)=   0.000000

     crystal axes: (cart. coord. in units of alat)
               a(1) = (   1.000000   0.000000   0.000000 )
               a(2) = (   0.000000   1.000000   0.000000 )
               a(3) = (   0.000000   0.000000   1.000000 )

     reciprocal axes: (cart. coord. in units 2 pi/alat)
               b(1) = (  1.000000  0.000000  0.000000 )
               b(2) = (  0.000000  1.000000  0.000000 )
               b(3) = (  0.000000  0.000000  1.000000 )

     PseudoPot. # 1 for Au read from file:
     ./Au.blyp-d-hgh.UPF
     MD5 check sum: c10d8bae01f806c36a1643a1c69a8479
     Pseudo is Norm-conserving, Zval = 11.0
     Generated in analytical, separable form
     Using radial grid of 1279 points,  6 beta functions with:
                l(1) =   0
                l(2) =   0
                l(3) =   1
                l(4) =   1
                l(5) =   2
                l(6) =   2

     atomic species   valence    mass     pseudopotential
        Au            11.00    28.08600     Au( 1.00)

     No symmetry found

   Cartesian axes

     site n.     atom                  positions (alat units)
         1           Au  tau(   1) = (   0.2018470   0.0151124   0.0125526  )
         2           Au  tau(   2) = (  -0.0015786   0.1751978   0.1801264  )
         3           Au  tau(   3) = (   0.1730138   0.1822536  -0.0394083  )
         4           Au  tau(   4) = (   0.2317627   0.2318370   0.2239151  )
         5           Au  tau(   5) = (   0.2114796  -0.0092975   0.2032818  )

     number of k points=     1  Marzari-Vanderbilt smearing, width (Ry)=  0.0250
                       cart. coord. in units 2pi/alat
        k(    1) = (   0.0000000   0.0000000   0.0000000), wk =   2.0000000

     Initial potential from superposition of free atoms
     Check: negative starting charge=   -0.006712

     starting charge   54.99940, renormalised to   55.00000

     negative rho (up, down):  6.712E-03 0.000E+00
     Starting wfc are   45 randomized atomic wfcs

     Self-consistent Calculation

     iteration #  1     ecut=    30.00 Ry     beta=0.70
     Davidson diagonalization with overlap
     ethr =  1.00E-02,  avg # of iterations =  5.0

     negative rho (up, down):  4.311E-04 0.000E+00

     total energy              =    -327.91223108 Ry
     Harris-Foulkes estimate   =    -328.57370910 Ry
     estimated scf accuracy    <       0.90679861 Ry

[...]

     End of self-consistent calculation

          k = 0.0000 0.0000 0.0000 ( 22119 PWs)   bands (ev):

   -12.9459 -12.3907 -11.3221 -10.9181  -9.7754  -8.5347  -7.7765  -7.6725
    -7.6397  -7.3987  -7.1611  -6.9593  -6.3937  -6.1708  -5.9531  -5.7654
    -5.5435  -5.4727  -5.2299  -5.1208  -5.0687  -5.0347  -4.7407  -4.6432
    -4.5042  -4.2105  -3.8583  -3.2776  -3.1326  -1.1548  -0.5101  -0.2450
    -0.0982   0.5582

     the Fermi energy is    -3.3296 ev

!    total energy              =    -328.41611158 Ry
     Harris-Foulkes estimate   =    -328.41611156 Ry
     estimated scf accuracy    <          4.7E-09 Ry

     The total energy is the sum of the following terms:

     one-electron contribution =    -726.33271140 Ry
     hartree contribution      =     382.90570337 Ry
     xc contribution           =     -51.97112279 Ry
     ewald contribution        =      66.98574979 Ry
     smearing contrib. (-TS)   =      -0.00373056 Ry

     convergence has been achieved in  14 iterations

     Forces acting on atoms (Ry/au):

     atom    1 type  1   force =     0.22769534   -1.39848080   -0.37207427
     atom    2 type  1   force =    -0.04153098    0.01852522    0.00915940
     atom    3 type  1   force =    -0.26185582    1.48401599   -0.49568733
     atom    4 type  1   force =     0.02994332    0.09495264    0.04024281
     atom    5 type  1   force =     0.04574813   -0.19901306    0.81835938

     Total force =     2.321143     Total SCF correction =     0.000345

     BFGS Geometry Optimization

     number of scf cycles    =   1
     number of bfgs steps    =   0

     energy   new            =    -328.4161115781 Ry

     new trust radius        =       0.5000000000 bohr
     new conv_thr            =       0.0000000100 Ry

ATOMIC_POSITIONS (bohr)
Au       4.108705038  -0.138532438   0.133778967
Au      -0.044661919   3.509794863   3.605415902
Au       3.377743112   4.112809803  -0.944399950
Au       4.644692668   4.666667598   4.490984908
Au       4.244010101  -0.248674826   4.323571173

     Writing output data file pwscf.save
     Check: negative starting charge=   -0.006712
     NEW-OLD atomic charge density approx. for the potential
     Check: negative starting charge=   -0.006459

[...]

     energy   old            =    -328.4161115781 Ry
     energy   new            =    -329.2343536520 Ry

     CASE: energy  _new < energy  _old

[...]

     WARNING: bfgs curvature condition failed, Theta= 0.950
     new trust radius        =       0.0172736169 bohr
     new conv_thr            =       0.0000000005 Ry

[...]

     WARNING: bfgs curvature condition failed, Theta= 0.984
     new trust radius        =       0.1770368246 bohr
     new conv_thr            =       0.0000000023 Ry

[...]

     Self-consistent Calculation

[...]

     total energy              =    -329.47674866 Ry
     Harris-Foulkes estimate   =    -329.47674867 Ry
     estimated scf accuracy    <          8.9E-10 Ry

     iteration # 12     ecut=    30.00 Ry     beta=0.70
     Davidson diagonalization with overlap
     ethr =  1.62E-12,  avg # of iterations =  2.0

     End of self-consistent calculation

          k = 0.0000 0.0000 0.0000 ( 22119 PWs)   bands (ev):

    -8.1499  -7.4643  -7.3795  -7.2089  -6.9761  -6.6380  -6.4930  -6.3422
    -6.2076  -6.1190  -5.8977  -5.7215  -5.6190  -5.5943  -5.5704  -5.4112
    -5.2193  -5.1819  -5.1560  -5.0791  -5.0318  -4.9932  -4.9570  -4.8944
    -4.7242  -4.4882  -4.3477  -3.7701  -2.5540  -2.0794  -0.4059  -0.2308
     0.2215   0.7486

     the Fermi energy is    -3.7738 ev

!    total energy              =    -329.47674865 Ry
     Harris-Foulkes estimate   =    -329.47674866 Ry
     estimated scf accuracy    <          9.4E-11 Ry

     The total energy is the sum of the following terms:

     one-electron contribution =    -594.97322400 Ry
     hartree contribution      =     319.11106540 Ry
     xc contribution           =     -51.40711146 Ry
     ewald contribution        =      -2.21105004 Ry
     smearing contrib. (-TS)   =       0.00357146 Ry

     convergence has been achieved in  12 iterations

     Forces acting on atoms (Ry/au):

     atom    1 type  1   force =     0.00035863   -0.01285414   -0.00153655
     atom    2 type  1   force =     0.00195430    0.00161893    0.00466346
     atom    3 type  1   force =     0.00077130    0.00647554    0.00214144
     atom    4 type  1   force =    -0.00759765   -0.00704884   -0.00415091
     atom    5 type  1   force =     0.00451342    0.01180851   -0.00111744

     Total force =     0.022994     Total SCF correction =     0.000042

     number of scf cycles    =  50
     number of bfgs steps    =  49

     energy   old            =    -329.4759110033 Ry
     energy   new            =    -329.4767486462 Ry

     CASE: energy  _new < energy  _old

     new trust radius        =       0.1693020212 bohr
     new conv_thr            =       0.0000000008 Ry

ATOMIC_POSITIONS (bohr)
Au       4.751652543  -1.387836271  -1.244100172
Au       0.910399149   6.357384176   2.991172988
Au       1.454895547   2.193235116   0.080184396
Au       4.607007157   4.664463506   6.132839019
Au       4.606534604   0.074818473   3.649254769

     Writing output data file pwscf.save
     Check: negative starting charge=   -0.005880
     NEW-OLD atomic charge density approx. for the potential
     Check: negative starting charge=   -0.005894

     negative rho (up, down):  3.770E-03 0.000E+00

     Writing output data file pwscf.save

     General routines

     Parallel routines

   This run was terminated on:   6:46:49   4Aug2017

   JOB DONE.