     Program PWSCF v.6.0 (svn rev. 13079) starts on  3Aug2017 at 16:59:40

     Current dimensions of program PWSCF are:
     Max number of different atomic species (ntypx) = 10
     Max number of k-points (npk) =  40000
     Max angular momentum in pseudopotentials (lmaxx) =  3
     Message from routine iosys:
     pot_extrapolation='second-order' not available, using 'atomic'
     Message from routine iosys:
     wfc_extrapolation='second-order' not available, using 'atomic'

     Subspace diagonalization in iterative solution of the eigenvalue problem:
     a serial algorithm will be used

     bravais-lattice index     =            1
     lattice parameter (alat)  =      20.0000  a.u.
     unit-cell volume          =    8000.0000 (a.u.)^3
     number of atoms/cell      =            5
     number of atomic types    =            1
     number of electrons       =        55.00
     number of Kohn-Sham states=           34
     kinetic-energy cutoff     =      30.0000  Ry
     charge density cutoff     =     120.0000  Ry
     convergence threshold     =      1.0E-08
     mixing beta               =       0.7000
     number of iterations used =            8  plain     mixing
     Exchange-correlation      = BLYP ( 1  3  1  3 0 0)
     nstep                     =           50

     celldm(1)=  20.000000  celldm(2)=   0.000000  celldm(3)=   0.000000
     celldm(4)=   0.000000  celldm(5)=   0.000000  celldm(6)=   0.000000

     crystal axes: (cart. coord. in units of alat)
               a(1) = (   1.000000   0.000000   0.000000 )
               a(2) = (   0.000000   1.000000   0.000000 )
               a(3) = (   0.000000   0.000000   1.000000 )

     reciprocal axes: (cart. coord. in units 2 pi/alat)
               b(1) = (  1.000000  0.000000  0.000000 )
               b(2) = (  0.000000  1.000000  0.000000 )
               b(3) = (  0.000000  0.000000  1.000000 )

     PseudoPot. # 1 for Au read from file:
     ./Au.blyp-d-hgh.UPF
     MD5 check sum: c10d8bae01f806c36a1643a1c69a8479
     Pseudo is Norm-conserving, Zval = 11.0
     Generated in analytical, separable form
     Using radial grid of 1279 points,  6 beta functions with:
                l(1) =   0
                l(2) =   0
                l(3) =   1
                l(4) =   1
                l(5) =   2
                l(6) =   2

     atomic species   valence    mass     pseudopotential
        Au            11.00    28.08600     Au( 1.00)

     No symmetry found

   Cartesian axes

     site n.     atom                  positions (alat units)
         1           Au  tau(   1) = (  -0.0868556   0.0956124  -0.0310050  )
         2           Au  tau(   2) = (  -0.0394452   0.1457302   0.2138971  )
         3           Au  tau(   3) = (   0.1530132   0.0616006   0.0274368  )
         4           Au  tau(   4) = (   0.2052864   0.1698527   0.2812962  )
         5           Au  tau(   5) = (   0.3833919   0.0708716   0.1291832  )

     number of k points=     1  Marzari-Vanderbilt smearing, width (Ry)=  0.0250
                       cart. coord. in units 2pi/alat
        k(    1) = (   0.0000000   0.0000000   0.0000000), wk =   2.0000000

     Initial potential from superposition of free atoms
     Check: negative starting charge=   -0.006459

     starting charge   54.99940, renormalised to   55.00000

     negative rho (up, down):  6.459E-03 0.000E+00
     Starting wfc are   45 randomized atomic wfcs

     Self-consistent Calculation

     iteration #  1     ecut=    30.00 Ry     beta=0.70
     Davidson diagonalization with overlap
     ethr =  1.00E-02,  avg # of iterations =  3.0

     Threshold (ethr) on eigenvalues was too large:
     Diagonalizing with lowered threshold

     Davidson diagonalization with overlap
     ethr =  4.01E-04,  avg # of iterations =  9.0

     negative rho (up, down):  8.808E-04 0.000E+00

     total energy              =    -329.37711070 Ry
     Harris-Foulkes estimate   =    -329.54480819 Ry
     estimated scf accuracy    <       0.27884904 Ry

[...]

     End of self-consistent calculation

          k = 0.0000 0.0000 0.0000 ( 22119 PWs)   bands (ev):

    -8.4439  -7.7498  -7.6474  -7.1841  -6.9815  -6.7984  -6.7481  -6.4532
    -6.2726  -6.0599  -5.9895  -5.7674  -5.7441  -5.6621  -5.4255  -5.3299
    -5.3179  -5.2224  -5.1826  -5.1748  -5.1722  -5.1345  -4.9631  -4.8906
    -4.8407  -4.6921  -4.3824  -3.7970  -2.4883  -2.1561  -0.5386  -0.2351
     0.5241   0.8854

     the Fermi energy is    -3.7828 ev

!    total energy              =    -329.48747019 Ry
     Harris-Foulkes estimate   =    -329.48747023 Ry
     estimated scf accuracy    <          8.8E-09 Ry

     The total energy is the sum of the following terms:

     one-electron contribution =    -610.96567942 Ry
     hartree contribution      =     326.94581383 Ry
     xc contribution           =     -51.42111173 Ry
     ewald contribution        =       5.95404618 Ry
     smearing contrib. (-TS)   =      -0.00053904 Ry

     convergence has been achieved in  12 iterations

     Forces acting on atoms (Ry/au):

     atom    1 type  1   force =    -0.01018898   -0.00112365   -0.00754907
     atom    2 type  1   force =    -0.00388277    0.00079207   -0.00159236
     atom    3 type  1   force =     0.00382181    0.00604369    0.01316036
     atom    4 type  1   force =     0.00472964   -0.00230341   -0.00084086
     atom    5 type  1   force =     0.00552030   -0.00340871   -0.00317807

     Total force =     0.022027     Total SCF correction =     0.000319

     BFGS Geometry Optimization

     number of scf cycles    =   1
     number of bfgs steps    =   0

     energy   new            =    -329.4874701851 Ry

     new trust radius        =       0.0149775632 bohr
     new conv_thr            =       0.0000000100 Ry

ATOMIC_POSITIONS (bohr)
Au      -1.747300976   1.911124352  -0.627650071
Au      -0.792786775   2.915396071   4.276349644
Au       3.064085806   1.238055693   0.561896356
Au       4.110456644   3.394751591   5.625083139
Au       7.673359300   1.414022293   2.580485931

     Writing output data file pwscf.save
     Check: negative starting charge=   -0.006459
     NEW-OLD atomic charge density approx. for the potential
     Check: negative starting charge=   -0.006452

[...]

     energy   old            =    -329.4874701851 Ry
     energy   new            =    -329.4879137300 Ry

     CASE: energy  _new < energy  _old

     WARNING: bfgs curvature condition failed, Theta= 0.969
     new trust radius        =       0.0164753195 bohr
     new conv_thr            =       0.0000000004 Ry

[...]

     WARNING: bfgs curvature condition failed, Theta= 0.521
     new trust radius        =       0.0285861561 bohr
     new conv_thr            =            1.0E-10 Ry

[...]

     number of scf cycles    =  49
     number of bfgs steps    =  48

     energy   old            =    -329.4921629859 Ry
     energy   new            =    -329.4921724446 Ry

     CASE: energy  _new < energy  _old

     new trust radius        =       0.0129515934 bohr
     new conv_thr            =            1.0E-10 Ry

ATOMIC_POSITIONS (bohr)
Au      -1.653330703   1.654303301  -0.931779016
Au      -0.816188206   3.404558196   3.860830344
Au       3.112895287   1.398396179   0.762837204
Au       3.943656458   3.084140510   5.877859175
Au       7.720781164   1.331951814   2.846417293

     Writing output data file pwscf.save
     Check: negative starting charge=   -0.006479
     NEW-OLD atomic charge density approx. for the potential
     Check: negative starting charge=   -0.006476

[...]

     Self-consistent Calculation

[...]

     Threshold (ethr) on eigenvalues was too large:
     Diagonalizing with lowered threshold

     Davidson diagonalization with overlap
     ethr =  4.70E-08,  avg # of iterations =  1.0

     negative rho (up, down):  1.053E-08 0.000E+00

[...]

     total energy              =    -329.49217936 Ry
     Harris-Foulkes estimate   =    -329.49217934 Ry
     estimated scf accuracy    <          3.7E-10 Ry

     iteration #  9     ecut=    30.00 Ry     beta=0.70
     Davidson diagonalization with overlap
     ethr =  6.71E-13,  avg # of iterations =  2.0

     End of self-consistent calculation

          k = 0.0000 0.0000 0.0000 ( 22119 PWs)   bands (ev):

    -8.5065  -7.7847  -7.6609  -7.2448  -6.8528  -6.8130  -6.6206  -6.4859
    -6.3137  -6.0769  -5.9573  -5.7706  -5.7301  -5.6900  -5.4689  -5.3615
    -5.3147  -5.2498  -5.2039  -5.1853  -5.1739  -5.1216  -5.0070  -4.9261
    -4.8351  -4.7368  -4.4822  -3.7733  -2.4842  -2.2059  -0.5609  -0.1834
     0.4727   0.8676

     the Fermi energy is    -3.7396 ev

!    total energy              =    -329.49217937 Ry
     Harris-Foulkes estimate   =    -329.49217936 Ry
     estimated scf accuracy    <          2.7E-11 Ry

     The total energy is the sum of the following terms:

     one-electron contribution =    -608.73914782 Ry
     hartree contribution      =     325.79606266 Ry
     xc contribution           =     -51.40009775 Ry
     ewald contribution        =       4.85561424 Ry
     smearing contrib. (-TS)   =      -0.00461069 Ry

     convergence has been achieved in   9 iterations

     Forces acting on atoms (Ry/au):

     atom    1 type  1   force =     0.00069282    0.00040720    0.00040979
     atom    2 type  1   force =     0.00049862    0.00038077   -0.00006072
     atom    3 type  1   force =    -0.00081352   -0.00090267    0.00021626
     atom    4 type  1   force =    -0.00029539    0.00027706    0.00033124
     atom    5 type  1   force =    -0.00008253   -0.00016237   -0.00089657

     Total force =     0.001961     Total SCF correction =     0.000021

     bfgs converged in  50 scf cycles and  49 bfgs steps
     (criteria: energy <  1.0E-04, force <  1.0E-03)

     End of BFGS Geometry Optimization

     Final energy   =    -329.4921793722 Ry
Begin final coordinates

ATOMIC_POSITIONS (bohr)
Au      -1.653330703   1.654303301  -0.931779016
Au      -0.816188206   3.404558196   3.860830344
Au       3.112895287   1.398396179   0.762837204
Au       3.943656458   3.084140510   5.877859175
Au       7.720781164   1.331951814   2.846417293
End final coordinates

     Writing output data file pwscf.save

     General routines

     Parallel routines

   This run was terminated on:  17: 2: 6   3Aug2017

   JOB DONE.