     Program PWSCF v.6.0 (svn rev. 13079) starts on  3Aug2017 at 16:24:51

     Current dimensions of program PWSCF are:
     Max number of different atomic species (ntypx) = 10
     Max number of k-points (npk) =  40000
     Max angular momentum in pseudopotentials (lmaxx) =  3
     Message from routine iosys:
     pot_extrapolation='second-order' not available, using 'atomic'
     Message from routine iosys:
     wfc_extrapolation='second-order' not available, using 'atomic'

     Subspace diagonalization in iterative solution of the eigenvalue problem:
     a serial algorithm will be used

     bravais-lattice index     =            1
     lattice parameter (alat)  =      20.0000  a.u.
     unit-cell volume          =    8000.0000 (a.u.)^3
     number of atoms/cell      =            5
     number of atomic types    =            1
     number of electrons       =        55.00
     number of Kohn-Sham states=           34
     kinetic-energy cutoff     =      30.0000  Ry
     charge density cutoff     =     120.0000  Ry
     convergence threshold     =      1.0E-08
     mixing beta               =       0.7000
     number of iterations used =            8  plain     mixing
     Exchange-correlation      = BLYP ( 1  3  1  3 0 0)
     nstep                     =           50

     celldm(1)=  20.000000  celldm(2)=   0.000000  celldm(3)=   0.000000
     celldm(4)=   0.000000  celldm(5)=   0.000000  celldm(6)=   0.000000

     crystal axes: (cart. coord. in units of alat)
               a(1) = (   1.000000   0.000000   0.000000 )
               a(2) = (   0.000000   1.000000   0.000000 )
               a(3) = (   0.000000   0.000000   1.000000 )

     reciprocal axes: (cart. coord. in units 2 pi/alat)
               b(1) = (  1.000000  0.000000  0.000000 )
               b(2) = (  0.000000  1.000000  0.000000 )
               b(3) = (  0.000000  0.000000  1.000000 )

     PseudoPot. # 1 for Au read from file:
     ./Au.blyp-d-hgh.UPF
     MD5 check sum: c10d8bae01f806c36a1643a1c69a8479
     Pseudo is Norm-conserving, Zval = 11.0
     Generated in analytical, separable form
     Using radial grid of 1279 points,  6 beta functions with:
                l(1) =   0
                l(2) =   0
                l(3) =   1
                l(4) =   1
                l(5) =   2
                l(6) =   2

     atomic species   valence    mass     pseudopotential
        Au            11.00    28.08600     Au( 1.00)

     No symmetry found

   Cartesian axes

     site n.     atom                  positions (alat units)
         1           Au  tau(   1) = (  -0.0784375   0.0764369  -0.0576693  )
         2           Au  tau(   2) = (  -0.0412856   0.1717841   0.1807868  )
         3           Au  tau(   3) = (   0.1597724   0.0932690   0.0388700  )
         4           Au  tau(   4) = (   0.1996240   0.1885166   0.2883111  )
         5           Au  tau(   5) = (   0.3886026   0.0657362   0.1536335  )

     number of k points=     1  Marzari-Vanderbilt smearing, width (Ry)=  0.0250
                       cart. coord. in units 2pi/alat
        k(    1) = (   0.0000000   0.0000000   0.0000000), wk =   2.0000000

     Initial potential from superposition of free atoms
     Check: negative starting charge=   -0.006440

     starting charge   54.99940, renormalised to   55.00000

     negative rho (up, down):  6.440E-03 0.000E+00
     Starting wfc are   45 randomized atomic wfcs

     Self-consistent Calculation

     iteration #  1     ecut=    30.00 Ry     beta=0.70
     Davidson diagonalization with overlap
     ethr =  1.00E-02,  avg # of iterations =  3.0

     Threshold (ethr) on eigenvalues was too large:
     Diagonalizing with lowered threshold

     Davidson diagonalization with overlap
     ethr =  3.95E-04,  avg # of iterations =  6.0

     negative rho (up, down):  8.755E-04 0.000E+00

     total energy              =    -329.38366340 Ry
     Harris-Foulkes estimate   =    -329.54559730 Ry
     estimated scf accuracy    <       0.27159693 Ry

[...]

     End of self-consistent calculation

          k = 0.0000 0.0000 0.0000 ( 22119 PWs)   bands (ev):

    -8.4690  -7.7610  -7.6994  -7.1827  -6.8122  -6.7185  -6.5611  -6.5024
    -6.2591  -6.0968  -5.8552  -5.7919  -5.6707  -5.6208  -5.5197  -5.3599
    -5.2876  -5.2708  -5.1927  -5.1735  -5.1641  -5.1066  -5.0244  -4.9721
    -4.8238  -4.7042  -4.5443  -3.7439  -2.5011  -2.2763  -0.5464  -0.1106
     0.4054   0.7598

     the Fermi energy is    -3.7028 ev

!    total energy              =    -329.48757749 Ry
     Harris-Foulkes estimate   =    -329.48757750 Ry
     estimated scf accuracy    <          7.5E-09 Ry

     The total energy is the sum of the following terms:

     one-electron contribution =    -604.37776010 Ry
     hartree contribution      =     323.63684977 Ry
     xc contribution           =     -51.38308734 Ry
     ewald contribution        =       2.64278717 Ry
     smearing contrib. (-TS)   =      -0.00636697 Ry

     convergence has been achieved in  11 iterations

     Forces acting on atoms (Ry/au):

     atom    1 type  1   force =     0.00746906    0.00238469    0.00456112
     atom    2 type  1   force =    -0.00119722    0.00384520    0.00622419
     atom    3 type  1   force =     0.00952219   -0.00941686   -0.00597679
     atom    4 type  1   force =    -0.00163865   -0.00281516   -0.00233688
     atom    5 type  1   force =    -0.01415538    0.00600213   -0.00247164

     Total force =     0.024716     Total SCF correction =     0.000356

     BFGS Geometry Optimization

     number of scf cycles    =   1
     number of bfgs steps    =   0

     energy   new            =    -329.4875774853 Ry

     new trust radius        =       0.0155727161 bohr
     new conv_thr            =       0.0000000100 Ry

ATOMIC_POSITIONS (bohr)
Au      -1.561280938   1.531121687  -1.148823884
Au      -0.826909225   3.439527200   3.621960186
Au       3.204969193   1.855963142   0.771422214
Au       3.990841353   3.767516837   5.763885121
Au       7.757897616   1.320726134   3.070197363

     Writing output data file pwscf.save
     Check: negative starting charge=   -0.006440
     NEW-OLD atomic charge density approx. for the potential
     Check: negative starting charge=   -0.006437

[...]

     energy   old            =    -329.4875774853 Ry
     energy   new            =    -329.4881463050 Ry

     CASE: energy  _new < energy  _old

     WARNING: bfgs curvature condition failed, Theta= 0.925
     new trust radius        =       0.0171299877 bohr
     new conv_thr            =       0.0000000006 Ry

[...]

     WARNING: bfgs curvature condition failed, Theta= 0.675
     new trust radius        =       0.0352846972 bohr
     new conv_thr            =            1.0E-10 Ry

[...]

     WARNING: info=  5 for Hessian
     uphill step: resetting bfgs history

[...]

     number of scf cycles    =  45
     number of bfgs steps    =  44

     energy   old            =    -329.4927766430 Ry
     energy   new            =    -329.4927895143 Ry

     CASE: energy  _new < energy  _old

     new trust radius        =       0.0065321253 bohr
     new conv_thr            =            1.0E-10 Ry

ATOMIC_POSITIONS (bohr)
Au      -1.439765285   1.723615351  -1.139610054
Au      -0.786092098   3.851107159   3.530867453
Au       3.192767532   1.385593867   0.834356582
Au       3.897960389   3.609167452   5.750211759
Au       7.700647461   1.345371171   3.102815260

     Writing output data file pwscf.save
     Check: negative starting charge=   -0.006441
     NEW-OLD atomic charge density approx. for the potential
     Check: negative starting charge=   -0.006439

     negative rho (up, down):  7.663E-07 0.000E+00

     Self-consistent Calculation

[...]

     Threshold (ethr) on eigenvalues was too large:
     Diagonalizing with lowered threshold

     Davidson diagonalization with overlap
     ethr =  1.28E-08,  avg # of iterations =  2.0

[...]

     total energy              =    -329.49279850 Ry
     Harris-Foulkes estimate   =    -329.49279849 Ry
     estimated scf accuracy    <          2.4E-10 Ry

     iteration #  9     ecut=    30.00 Ry     beta=0.70
     Davidson diagonalization with overlap
     ethr =  4.34E-13,  avg # of iterations =  2.0

     End of self-consistent calculation

          k = 0.0000 0.0000 0.0000 ( 22119 PWs)   bands (ev):

    -8.5208  -7.7883  -7.6553  -7.2316  -6.8446  -6.8230  -6.6139  -6.4826
    -6.3047  -6.0852  -5.9539  -5.7721  -5.7327  -5.6860  -5.4639  -5.3570
    -5.3139  -5.2539  -5.1989  -5.1807  -5.1720  -5.1209  -4.9977  -4.9266
    -4.8357  -4.7339  -4.4817  -3.7706  -2.4489  -2.2145  -0.5450  -0.1670
     0.4667   0.8367

     the Fermi energy is    -3.7367 ev

!    total energy              =    -329.49279850 Ry
     Harris-Foulkes estimate   =    -329.49279850 Ry
     estimated scf accuracy    <          3.4E-11 Ry

     The total energy is the sum of the following terms:

     one-electron contribution =    -607.73415124 Ry
     hartree contribution      =     325.29683176 Ry
     xc contribution           =     -51.40003488 Ry
     ewald contribution        =       4.34922088 Ry
     smearing contrib. (-TS)   =      -0.00466502 Ry

     convergence has been achieved in   9 iterations

     Forces acting on atoms (Ry/au):

     atom    1 type  1   force =    -0.00048177   -0.00016669    0.00015780
     atom    2 type  1   force =     0.00045346    0.00079625    0.00053379
     atom    3 type  1   force =     0.00030060   -0.00034071   -0.00052104
     atom    4 type  1   force =    -0.00087021   -0.00006598   -0.00022436
     atom    5 type  1   force =     0.00059793   -0.00022287    0.00005381

     Total force =     0.001763     Total SCF correction =     0.000023

     bfgs converged in  46 scf cycles and  45 bfgs steps
     (criteria: energy <  1.0E-04, force <  1.0E-03)

     End of BFGS Geometry Optimization

     Final energy   =    -329.4927985016 Ry
Begin final coordinates

ATOMIC_POSITIONS (bohr)
Au      -1.439765285   1.723615351  -1.139610054
Au      -0.786092098   3.851107159   3.530867453
Au       3.192767532   1.385593867   0.834356582
Au       3.897960389   3.609167452   5.750211759
Au       7.700647461   1.345371171   3.102815260
End final coordinates

     Writing output data file pwscf.save

     General routines

     Parallel routines

   This run was terminated on:  16:27: 1   3Aug2017

   JOB DONE.