     Program PWSCF v.6.0 (svn rev. 13079) starts on  3Aug2017 at 11:20: 1

     Current dimensions of program PWSCF are:
     Max number of different atomic species (ntypx) = 10
     Max number of k-points (npk) =  40000
     Max angular momentum in pseudopotentials (lmaxx) =  3
     Message from routine iosys:
     pot_extrapolation='second-order' not available, using 'atomic'
     Message from routine iosys:
     wfc_extrapolation='second-order' not available, using 'atomic'

     Subspace diagonalization in iterative solution of the eigenvalue problem:
     a serial algorithm will be used

     bravais-lattice index     =            1
     lattice parameter (alat)  =      20.0000  a.u.
     unit-cell volume          =    8000.0000 (a.u.)^3
     number of atoms/cell      =            5
     number of atomic types    =            1
     number of electrons       =        55.00
     number of Kohn-Sham states=           34
     kinetic-energy cutoff     =      30.0000  Ry
     charge density cutoff     =     120.0000  Ry
     convergence threshold     =      1.0E-08
     mixing beta               =       0.7000
     number of iterations used =            8  plain     mixing
     Exchange-correlation      = BLYP ( 1  3  1  3 0 0)
     nstep                     =           50

     celldm(1)=  20.000000  celldm(2)=   0.000000  celldm(3)=   0.000000
     celldm(4)=   0.000000  celldm(5)=   0.000000  celldm(6)=   0.000000

     crystal axes: (cart. coord. in units of alat)
               a(1) = (   1.000000   0.000000   0.000000 )
               a(2) = (   0.000000   1.000000   0.000000 )
               a(3) = (   0.000000   0.000000   1.000000 )

     reciprocal axes: (cart. coord. in units 2 pi/alat)
               b(1) = (  1.000000  0.000000  0.000000 )
               b(2) = (  0.000000  1.000000  0.000000 )
               b(3) = (  0.000000  0.000000  1.000000 )

     PseudoPot. # 1 for Au read from file:
     ./Au.blyp-d-hgh.UPF
     MD5 check sum: c10d8bae01f806c36a1643a1c69a8479
     Pseudo is Norm-conserving, Zval = 11.0
     Generated in analytical, separable form
     Using radial grid of 1279 points,  6 beta functions with:
                l(1) =   0
                l(2) =   0
                l(3) =   1
                l(4) =   1
                l(5) =   2
                l(6) =   2

     atomic species   valence    mass     pseudopotential
        Au            11.00    28.08600     Au( 1.00)

     No symmetry found

   Cartesian axes

     site n.     atom                  positions (alat units)
         1           Au  tau(   1) = (  -0.0843194   0.0714877  -0.0332214  )
         2           Au  tau(   2) = (  -0.0462777   0.1856575   0.1896932  )
         3           Au  tau(   3) = (   0.1569677   0.0559971   0.0358048  )
         4           Au  tau(   4) = (   0.1980204   0.2133293   0.2613284  )
         5           Au  tau(   5) = (   0.3790001   0.0713421   0.1554332  )

     number of k points=     1  Marzari-Vanderbilt smearing, width (Ry)=  0.0250
                       cart. coord. in units 2pi/alat
        k(    1) = (   0.0000000   0.0000000   0.0000000), wk =   2.0000000

     Initial potential from superposition of free atoms
     Check: negative starting charge=   -0.006342

     starting charge   54.99940, renormalised to   55.00000

     negative rho (up, down):  6.342E-03 0.000E+00
     Starting wfc are   45 randomized atomic wfcs

     Self-consistent Calculation

     iteration #  1     ecut=    30.00 Ry     beta=0.70
     Davidson diagonalization with overlap
     ethr =  1.00E-02,  avg # of iterations =  3.0

     Threshold (ethr) on eigenvalues was too large:
     Diagonalizing with lowered threshold

     Davidson diagonalization with overlap
     ethr =  4.03E-04,  avg # of iterations =  6.0

     negative rho (up, down):  8.455E-04 0.000E+00

     total energy              =    -329.37709892 Ry
     Harris-Foulkes estimate   =    -329.54535315 Ry
     estimated scf accuracy    <       0.27931596 Ry

[...]

     End of self-consistent calculation

          k = 0.0000 0.0000 0.0000 ( 22119 PWs)   bands (ev):

    -8.3954  -7.7333  -7.6323  -7.1716  -6.9778  -6.7729  -6.7529  -6.4536
    -6.2577  -6.0724  -5.9828  -5.7570  -5.7168  -5.6632  -5.4174  -5.3302
    -5.3173  -5.2241  -5.1778  -5.1741  -5.1619  -5.1347  -4.9841  -4.8928
    -4.8477  -4.6793  -4.3879  -3.7854  -2.5013  -2.1423  -0.5201  -0.1918
     0.5246   0.7627

     the Fermi energy is    -3.7683 ev

!    total energy              =    -329.48816028 Ry
     Harris-Foulkes estimate   =    -329.48816031 Ry
     estimated scf accuracy    <          2.7E-09 Ry

     The total energy is the sum of the following terms:

     one-electron contribution =    -607.98369425 Ry
     hartree contribution      =     325.46228634 Ry
     xc contribution           =     -51.41381172 Ry
     ewald contribution        =       4.44814945 Ry
     smearing contrib. (-TS)   =      -0.00109011 Ry

     convergence has been achieved in  13 iterations

     Forces acting on atoms (Ry/au):

     atom    1 type  1   force =    -0.00329758   -0.00404891   -0.00859144
     atom    2 type  1   force =     0.00226757    0.00106517    0.00003738
     atom    3 type  1   force =    -0.00386781    0.00778553    0.01183314
     atom    4 type  1   force =    -0.00174917   -0.00041422    0.00176000
     atom    5 type  1   force =     0.00664698   -0.00438757   -0.00503908

     Total force =     0.020448     Total SCF correction =     0.000239

     BFGS Geometry Optimization

     number of scf cycles    =   1
     number of bfgs steps    =   0

     energy   new            =    -329.4881602820 Ry

     new trust radius        =       0.0146832439 bohr
     new conv_thr            =       0.0000000100 Ry

ATOMIC_POSITIONS (bohr)
Au      -1.689686576   1.425705091  -0.673020444
Au      -0.923287430   3.714214170   3.793900381
Au       3.135486192   1.127728531   0.727928141
Au       3.958658834   4.266171779   5.228327997
Au       7.586647980   1.422453428   3.103624925

     Writing output data file pwscf.save
     Check: negative starting charge=   -0.006342
     NEW-OLD atomic charge density approx. for the potential
     Check: negative starting charge=   -0.006344

[...]

     energy   old            =    -329.4881602820 Ry
     energy   new            =    -329.4885607944 Ry

     CASE: energy  _new < energy  _old

     WARNING: bfgs curvature condition failed, Theta= 0.877
     new trust radius        =       0.0161515682 bohr
     new conv_thr            =       0.0000000004 Ry

[...]

     WARNING: bfgs curvature condition failed, Theta= 0.677
     uphill step: resetting bfgs history

[...]

     WARNING: bfgs curvature condition failed, Theta= 0.960
     new trust radius        =       0.0060368135 bohr
     new conv_thr            =            1.0E-10 Ry

[...]

     number of scf cycles    =  33
     number of bfgs steps    =  32

     energy   old            =    -329.4925320875 Ry
     energy   new            =    -329.4925387881 Ry

     CASE: energy  _new < energy  _old

     new trust radius        =       0.0050040241 bohr
     new conv_thr            =            1.0E-10 Ry

ATOMIC_POSITIONS (bohr)
Au      -1.695354454   1.320817525  -0.874793626
Au      -0.797932945   3.924075659   3.505666926
Au       3.034869676   1.214926406   0.910175012
Au       3.950031258   4.117863880   5.533463242
Au       7.576205466   1.378589531   3.106249445

     Writing output data file pwscf.save
     Check: negative starting charge=   -0.006304
     NEW-OLD atomic charge density approx. for the potential
     Check: negative starting charge=   -0.006306

     negative rho (up, down):  1.091E-07 0.000E+00

     Self-consistent Calculation

[...]

     Threshold (ethr) on eigenvalues was too large:
     Diagonalizing with lowered threshold

     Davidson diagonalization with overlap
     ethr =  7.81E-09,  avg # of iterations =  1.0

[...]

     total energy              =    -329.49254532 Ry
     Harris-Foulkes estimate   =    -329.49254532 Ry
     estimated scf accuracy    <          1.2E-09 Ry

     iteration #  8     ecut=    30.00 Ry     beta=0.70
     Davidson diagonalization with overlap
     ethr =  2.14E-12,  avg # of iterations =  2.0

     End of self-consistent calculation

          k = 0.0000 0.0000 0.0000 ( 22119 PWs)   bands (ev):

    -8.4963  -7.7697  -7.6505  -7.2303  -6.8801  -6.8089  -6.6040  -6.4751
    -6.3124  -6.0664  -5.9604  -5.7652  -5.7261  -5.6850  -5.4454  -5.3710
    -5.3168  -5.2389  -5.1962  -5.1879  -5.1661  -5.1252  -4.9969  -4.9165
    -4.8576  -4.7144  -4.4750  -3.7800  -2.4603  -2.2005  -0.5386  -0.1641
     0.4683   0.8330

     the Fermi energy is    -3.7483 ev

!    total energy              =    -329.49254529 Ry
     Harris-Foulkes estimate   =    -329.49254532 Ry
     estimated scf accuracy    <          7.4E-11 Ry

     The total energy is the sum of the following terms:

     one-electron contribution =    -607.00856916 Ry
     hartree contribution      =     324.93982923 Ry
     xc contribution           =     -51.39952177 Ry
     ewald contribution        =       3.97985389 Ry
     smearing contrib. (-TS)   =      -0.00413749 Ry

     convergence has been achieved in   8 iterations

     Forces acting on atoms (Ry/au):

     atom    1 type  1   force =     0.00072018    0.00074338    0.00003492
     atom    2 type  1   force =    -0.00082098   -0.00014823   -0.00033468
     atom    3 type  1   force =     0.00050985   -0.00061122    0.00035348
     atom    4 type  1   force =     0.00027894   -0.00023945   -0.00008983
     atom    5 type  1   force =    -0.00068799    0.00025552    0.00003612

     Total force =     0.001823     Total SCF correction =     0.000036

     bfgs converged in  34 scf cycles and  33 bfgs steps
     (criteria: energy <  1.0E-04, force <  1.0E-03)

     End of BFGS Geometry Optimization

     Final energy   =    -329.4925452927 Ry
Begin final coordinates

ATOMIC_POSITIONS (bohr)
Au      -1.695354454   1.320817525  -0.874793626
Au      -0.797932945   3.924075659   3.505666926
Au       3.034869676   1.214926406   0.910175012
Au       3.950031258   4.117863880   5.533463242
Au       7.576205466   1.378589531   3.106249445
End final coordinates

     Writing output data file pwscf.save

     General routines

     Parallel routines

   This run was terminated on:  11:21:35   3Aug2017

   JOB DONE.