     Program PWSCF v.6.0 (svn rev. 13079) starts on  4Aug2017 at  2:33: 5

     Current dimensions of program PWSCF are:
     Max number of different atomic species (ntypx) = 10
     Max number of k-points (npk) =  40000
     Max angular momentum in pseudopotentials (lmaxx) =  3
     Message from routine iosys:
     pot_extrapolation='second-order' not available, using 'atomic'
     Message from routine iosys:
     wfc_extrapolation='second-order' not available, using 'atomic'

     Subspace diagonalization in iterative solution of the eigenvalue problem:
     a serial algorithm will be used

     bravais-lattice index     =            1
     lattice parameter (alat)  =      20.0000  a.u.
     unit-cell volume          =    8000.0000 (a.u.)^3
     number of atoms/cell      =            5
     number of atomic types    =            1
     number of electrons       =        55.00
     number of Kohn-Sham states=           34
     kinetic-energy cutoff     =      30.0000  Ry
     charge density cutoff     =     120.0000  Ry
     convergence threshold     =      1.0E-08
     mixing beta               =       0.7000
     number of iterations used =            8  plain     mixing
     Exchange-correlation      = BLYP ( 1  3  1  3 0 0)
     nstep                     =           50

     celldm(1)=  20.000000  celldm(2)=   0.000000  celldm(3)=   0.000000
     celldm(4)=   0.000000  celldm(5)=   0.000000  celldm(6)=   0.000000

     crystal axes: (cart. coord. in units of alat)
               a(1) = (   1.000000   0.000000   0.000000 )
               a(2) = (   0.000000   1.000000   0.000000 )
               a(3) = (   0.000000   0.000000   1.000000 )

     reciprocal axes: (cart. coord. in units 2 pi/alat)
               b(1) = (  1.000000  0.000000  0.000000 )
               b(2) = (  0.000000  1.000000  0.000000 )
               b(3) = (  0.000000  0.000000  1.000000 )

     PseudoPot. # 1 for Au read from file:
     ./Au.blyp-d-hgh.UPF
     MD5 check sum: c10d8bae01f806c36a1643a1c69a8479
     Pseudo is Norm-conserving, Zval = 11.0
     Generated in analytical, separable form
     Using radial grid of 1279 points,  6 beta functions with:
                l(1) =   0
                l(2) =   0
                l(3) =   1
                l(4) =   1
                l(5) =   2
                l(6) =   2

     atomic species   valence    mass     pseudopotential
        Au            11.00    28.08600     Au( 1.00)

     No symmetry found

   Cartesian axes

     site n.     atom                  positions (alat units)
         1           Au  tau(   1) = (  -0.0993082   0.0673086  -0.0306301  )
         2           Au  tau(   2) = (   0.0120846   0.1223267   0.1999626  )
         3           Au  tau(   3) = (   0.1450862   0.0759869  -0.0029974  )
         4           Au  tau(   4) = (   0.2234193   0.2418123   0.2906198  )
         5           Au  tau(   5) = (   0.3310226   0.0485660   0.1499762  )

     number of k points=     1  Marzari-Vanderbilt smearing, width (Ry)=  0.0250
                       cart. coord. in units 2pi/alat
        k(    1) = (   0.0000000   0.0000000   0.0000000), wk =   2.0000000

     Initial potential from superposition of free atoms
     Check: negative starting charge=   -0.006328

     starting charge   54.99940, renormalised to   55.00000

     negative rho (up, down):  6.328E-03 0.000E+00
     Starting wfc are   45 randomized atomic wfcs

     Self-consistent Calculation

     iteration #  1     ecut=    30.00 Ry     beta=0.70
     Davidson diagonalization with overlap
     ethr =  1.00E-02,  avg # of iterations =  3.0

     Threshold (ethr) on eigenvalues was too large:
     Diagonalizing with lowered threshold

     Davidson diagonalization with overlap
     ethr =  3.99E-04,  avg # of iterations =  8.0

     negative rho (up, down):  8.364E-04 0.000E+00

     total energy              =    -329.35453004 Ry
     Harris-Foulkes estimate   =    -329.51932874 Ry
     estimated scf accuracy    <       0.27641990 Ry

[...]

     End of self-consistent calculation

          k = 0.0000 0.0000 0.0000 ( 22119 PWs)   bands (ev):

    -8.4977  -7.8996  -7.7488  -7.3249  -6.9427  -6.8951  -6.7240  -6.4737
    -6.2736  -5.9867  -5.8357  -5.7967  -5.7030  -5.5900  -5.5524  -5.4956
    -5.2401  -5.1844  -5.1617  -5.1272  -5.1126  -5.0232  -4.9613  -4.8784
    -4.7905  -4.5687  -4.2910  -3.6653  -2.4947  -2.1616  -0.3700  -0.1285
     0.3582   0.5285

     the Fermi energy is    -3.6437 ev

!    total energy              =    -329.46246133 Ry
     Harris-Foulkes estimate   =    -329.46246132 Ry
     estimated scf accuracy    <          2.1E-09 Ry

     The total energy is the sum of the following terms:

     one-electron contribution =    -613.29865957 Ry
     hartree contribution      =     328.14561015 Ry
     xc contribution           =     -51.44494560 Ry
     ewald contribution        =       7.13754955 Ry
     smearing contrib. (-TS)   =      -0.00201585 Ry

     convergence has been achieved in  12 iterations

     Forces acting on atoms (Ry/au):

     atom    1 type  1   force =    -0.02512121   -0.00006591    0.00005861
     atom    2 type  1   force =    -0.01541968    0.01716846    0.02010058
     atom    3 type  1   force =     0.01211831   -0.00804110   -0.04550860
     atom    4 type  1   force =    -0.00474702   -0.01507087   -0.00162875
     atom    5 type  1   force =     0.03316959    0.00600942    0.02697816

     Total force =     0.077244     Total SCF correction =     0.000198

     BFGS Geometry Optimization

     number of scf cycles    =   1
     number of bfgs steps    =   0

     energy   new            =    -329.4624613282 Ry

     new trust radius        =       0.0477759931 bohr
     new conv_thr            =       0.0000000100 Ry

ATOMIC_POSITIONS (bohr)
Au      -2.011285209   1.346106089  -0.612543387
Au       0.226273325   2.463701457   4.019351583
Au       2.913842313   1.511697904  -0.105455601
Au       4.463639980   4.821174129   5.810767246
Au       6.653621591   0.977330421   3.026501159

     Writing output data file pwscf.save
     Check: negative starting charge=   -0.006328
     NEW-OLD atomic charge density approx. for the potential
     Check: negative starting charge=   -0.006304

[...]

     energy   old            =    -329.4624613282 Ry
     energy   new            =    -329.4674393227 Ry

     CASE: energy  _new < energy  _old

[...]

     Threshold (ethr) on eigenvalues was too large:
     Diagonalizing with lowered threshold

     Davidson diagonalization with overlap
     ethr =  8.19E-08,  avg # of iterations =  1.0

[...]

     WARNING: bfgs curvature condition failed, Theta= 0.771
     new trust radius        =       0.0950604560 bohr
     new conv_thr            =       0.0000000004 Ry

[...]

     WARNING: bfgs curvature condition failed, Theta= 0.965
     new trust radius        =       0.1458596361 bohr
     new conv_thr            =       0.0000000006 Ry

[...]

     iteration #  1     ecut=    30.00 Ry     beta=0.70
     Davidson diagonalization with overlap
     c_bands:  1 eigenvalues not converged
     ethr =  1.00E-06,  avg # of iterations = 20.0

[...]

     Self-consistent Calculation

[...]

     total energy              =    -329.49218646 Ry
     Harris-Foulkes estimate   =    -329.49218648 Ry
     estimated scf accuracy    <          8.0E-10 Ry

     iteration # 10     ecut=    30.00 Ry     beta=0.70
     Davidson diagonalization with overlap
     ethr =  1.45E-12,  avg # of iterations =  2.0

     End of self-consistent calculation

          k = 0.0000 0.0000 0.0000 ( 22119 PWs)   bands (ev):

    -8.4805  -7.7695  -7.6491  -7.2376  -6.9045  -6.7882  -6.6388  -6.4770
    -6.2879  -6.0437  -5.9690  -5.7534  -5.7135  -5.6853  -5.4285  -5.3889
    -5.3138  -5.2361  -5.2070  -5.1798  -5.1625  -5.1162  -4.9918  -4.9412
    -4.8523  -4.6825  -4.4784  -3.7438  -2.4056  -2.2248  -0.5070  -0.1871
     0.3971   0.6660

     the Fermi energy is    -3.7078 ev

!    total energy              =    -329.49218645 Ry
     Harris-Foulkes estimate   =    -329.49218646 Ry
     estimated scf accuracy    <          8.4E-11 Ry

     The total energy is the sum of the following terms:

     one-electron contribution =    -604.54424980 Ry
     hartree contribution      =     323.71298191 Ry
     xc contribution           =     -51.39790659 Ry
     ewald contribution        =       2.74213175 Ry
     smearing contrib. (-TS)   =      -0.00514372 Ry

     convergence has been achieved in  10 iterations

     Forces acting on atoms (Ry/au):

     atom    1 type  1   force =     0.00059620   -0.00055962   -0.00045626
     atom    2 type  1   force =    -0.00133486    0.00156165    0.00029047
     atom    3 type  1   force =     0.00097374   -0.00033488   -0.00167762
     atom    4 type  1   force =     0.00077328    0.00026112    0.00124923
     atom    5 type  1   force =    -0.00100836   -0.00092827    0.00059418

     Total force =     0.003676     Total SCF correction =     0.000040

     number of scf cycles    =  50
     number of bfgs steps    =  49

     energy   old            =    -329.4921508594 Ry
     energy   new            =    -329.4921864460 Ry

     CASE: energy  _new < energy  _old

     new trust radius        =       0.0338645625 bohr
     new conv_thr            =            1.0E-10 Ry

ATOMIC_POSITIONS (bohr)
Au      -2.042843432   1.668087035  -0.450104541
Au       0.927990721   3.208574977   3.336324156
Au       2.784870486  -0.157886031  -0.415187290
Au       4.330129660   4.528813554   6.819989536
Au       6.245944564   1.872420465   2.847599139

     Writing output data file pwscf.save
     Check: negative starting charge=   -0.006226
     NEW-OLD atomic charge density approx. for the potential
     Check: negative starting charge=   -0.006219

     negative rho (up, down):  2.640E-04 0.000E+00

     Writing output data file pwscf.save

     General routines

     Parallel routines

   This run was terminated on:   2:35:23   4Aug2017

   JOB DONE.