     Program PWSCF v.6.0 (svn rev. 13079) starts on  3Aug2017 at 14: 7:58

     Current dimensions of program PWSCF are:
     Max number of different atomic species (ntypx) = 10
     Max number of k-points (npk) =  40000
     Max angular momentum in pseudopotentials (lmaxx) =  3
     Message from routine iosys:
     pot_extrapolation='second-order' not available, using 'atomic'
     Message from routine iosys:
     wfc_extrapolation='second-order' not available, using 'atomic'

     Subspace diagonalization in iterative solution of the eigenvalue problem:
     a serial algorithm will be used

     bravais-lattice index     =            1
     lattice parameter (alat)  =      20.0000  a.u.
     unit-cell volume          =    8000.0000 (a.u.)^3
     number of atoms/cell      =            5
     number of atomic types    =            1
     number of electrons       =        55.00
     number of Kohn-Sham states=           34
     kinetic-energy cutoff     =      30.0000  Ry
     charge density cutoff     =     120.0000  Ry
     convergence threshold     =      1.0E-08
     mixing beta               =       0.7000
     number of iterations used =            8  plain     mixing
     Exchange-correlation      = BLYP ( 1  3  1  3 0 0)
     nstep                     =           50

     celldm(1)=  20.000000  celldm(2)=   0.000000  celldm(3)=   0.000000
     celldm(4)=   0.000000  celldm(5)=   0.000000  celldm(6)=   0.000000

     crystal axes: (cart. coord. in units of alat)
               a(1) = (   1.000000   0.000000   0.000000 )
               a(2) = (   0.000000   1.000000   0.000000 )
               a(3) = (   0.000000   0.000000   1.000000 )

     reciprocal axes: (cart. coord. in units 2 pi/alat)
               b(1) = (  1.000000  0.000000  0.000000 )
               b(2) = (  0.000000  1.000000  0.000000 )
               b(3) = (  0.000000  0.000000  1.000000 )

     PseudoPot. # 1 for Au read from file:
     ./Au.blyp-d-hgh.UPF
     MD5 check sum: c10d8bae01f806c36a1643a1c69a8479
     Pseudo is Norm-conserving, Zval = 11.0
     Generated in analytical, separable form
     Using radial grid of 1279 points,  6 beta functions with:
                l(1) =   0
                l(2) =   0
                l(3) =   1
                l(4) =   1
                l(5) =   2
                l(6) =   2

     atomic species   valence    mass     pseudopotential
        Au            11.00    28.08600     Au( 1.00)

     No symmetry found

   Cartesian axes

     site n.     atom                  positions (alat units)
         1           Au  tau(   1) = (  -0.0810678   0.0946935  -0.0576449  )
         2           Au  tau(   2) = (  -0.0420263   0.1935814   0.1828649  )
         3           Au  tau(   3) = (   0.1552383   0.0790255   0.0448122  )
         4           Au  tau(   4) = (   0.2008230   0.1715880   0.2828784  )
         5           Au  tau(   5) = (   0.3934967   0.0607495   0.1445822  )

     number of k points=     1  Marzari-Vanderbilt smearing, width (Ry)=  0.0250
                       cart. coord. in units 2pi/alat
        k(    1) = (   0.0000000   0.0000000   0.0000000), wk =   2.0000000

     Initial potential from superposition of free atoms
     Check: negative starting charge=   -0.006468

     starting charge   54.99940, renormalised to   55.00000

     negative rho (up, down):  6.468E-03 0.000E+00
     Starting wfc are   45 randomized atomic wfcs

     Self-consistent Calculation

     iteration #  1     ecut=    30.00 Ry     beta=0.70
     Davidson diagonalization with overlap
     ethr =  1.00E-02,  avg # of iterations =  3.0

     Threshold (ethr) on eigenvalues was too large:
     Diagonalizing with lowered threshold

     Davidson diagonalization with overlap
     ethr =  3.96E-04,  avg # of iterations =  6.0

     negative rho (up, down):  8.860E-04 0.000E+00

     total energy              =    -329.38446399 Ry
     Harris-Foulkes estimate   =    -329.54623002 Ry
     estimated scf accuracy    <       0.27172106 Ry

[...]

     End of self-consistent calculation

          k = 0.0000 0.0000 0.0000 ( 22119 PWs)   bands (ev):

    -8.4582  -7.7525  -7.7321  -7.1706  -6.7606  -6.6779  -6.5553  -6.5230
    -6.2608  -6.0986  -5.8460  -5.7507  -5.6815  -5.6344  -5.5215  -5.3322
    -5.2993  -5.2930  -5.1927  -5.1750  -5.1631  -5.1090  -5.0414  -4.9683
    -4.8082  -4.7357  -4.5512  -3.7619  -2.5248  -2.2521  -0.5466  -0.1114
     0.4589   0.8147

     the Fermi energy is    -3.7215 ev

!    total energy              =    -329.48841547 Ry
     Harris-Foulkes estimate   =    -329.48841551 Ry
     estimated scf accuracy    <          6.7E-09 Ry

     The total energy is the sum of the following terms:

     one-electron contribution =    -603.48094403 Ry
     hartree contribution      =     323.18887638 Ry
     xc contribution           =     -51.37937253 Ry
     ewald contribution        =       2.18923354 Ry
     smearing contrib. (-TS)   =      -0.00620883 Ry

     convergence has been achieved in  11 iterations

     Forces acting on atoms (Ry/au):

     atom    1 type  1   force =     0.01166179    0.00295354    0.01183628
     atom    2 type  1   force =     0.00232792   -0.00061362   -0.00111269
     atom    3 type  1   force =     0.00177797   -0.00543584   -0.01377912
     atom    4 type  1   force =     0.00088425    0.00123742    0.00422392
     atom    5 type  1   force =    -0.01665193    0.00185850   -0.00116839

     Total force =     0.028578     Total SCF correction =     0.000329

     BFGS Geometry Optimization

     number of scf cycles    =   1
     number of bfgs steps    =   0

     energy   new            =    -329.4884154650 Ry

     new trust radius        =       0.0168765571 bohr
     new conv_thr            =       0.0000000100 Ry

ATOMIC_POSITIONS (bohr)
Au      -1.609693215   1.896823535  -1.141062718
Au      -0.838198078   3.871014384   3.656186306
Au       3.106544973   1.575075165   0.882465881
Au       4.017344254   3.432997417   5.661791918
Au       7.853282065   1.216848499   2.890476612

     Writing output data file pwscf.save
     Check: negative starting charge=   -0.006468
     NEW-OLD atomic charge density approx. for the potential
     Check: negative starting charge=   -0.006460

[...]

     energy   old            =    -329.4884154650 Ry
     energy   new            =    -329.4891839026 Ry

     CASE: energy  _new < energy  _old

     WARNING: bfgs curvature condition failed, Theta= 0.905
     new trust radius        =       0.0185642128 bohr
     new conv_thr            =       0.0000000008 Ry

[...]

     WARNING: bfgs curvature condition failed, Theta= 0.615
     new trust radius        =       0.0372419849 bohr
     new conv_thr            =            1.0E-10 Ry

[...]

     CASE: energy  _new > energy  _old

[...]

     WARNING: info=  2 for Hessian
     uphill step: resetting bfgs history

[...]

     Self-consistent Calculation

[...]

     Threshold (ethr) on eigenvalues was too large:
     Diagonalizing with lowered threshold

     Davidson diagonalization with overlap
     ethr =  3.41E-08,  avg # of iterations =  1.0

[...]

     total energy              =    -329.49365799 Ry
     Harris-Foulkes estimate   =    -329.49365799 Ry
     estimated scf accuracy    <          3.9E-10 Ry

     iteration #  9     ecut=    30.00 Ry     beta=0.70
     Davidson diagonalization with overlap
     ethr =  7.06E-13,  avg # of iterations =  2.0

     End of self-consistent calculation

          k = 0.0000 0.0000 0.0000 ( 22119 PWs)   bands (ev):

    -8.5110  -7.7853  -7.6580  -7.2398  -6.8546  -6.8149  -6.6196  -6.4800
    -6.3118  -6.0746  -5.9529  -5.7691  -5.7271  -5.6853  -5.4605  -5.3562
    -5.3107  -5.2477  -5.2010  -5.1774  -5.1733  -5.1211  -5.0031  -4.9242
    -4.8326  -4.7342  -4.4774  -3.7704  -2.4350  -2.1967  -0.5305  -0.1765
     0.4705   0.7702

     the Fermi energy is    -3.7369 ev

!    total energy              =    -329.49365801 Ry
     Harris-Foulkes estimate   =    -329.49365799 Ry
     estimated scf accuracy    <          5.1E-11 Ry

     The total energy is the sum of the following terms:

     one-electron contribution =    -606.88141857 Ry
     hartree contribution      =     324.87248465 Ry
     xc contribution           =     -51.39998478 Ry
     ewald contribution        =       3.91982677 Ry
     smearing contrib. (-TS)   =      -0.00456608 Ry

     convergence has been achieved in   9 iterations

     Forces acting on atoms (Ry/au):

     atom    1 type  1   force =     0.00011555   -0.00042701   -0.00066992
     atom    2 type  1   force =     0.00035176    0.00023758    0.00105367
     atom    3 type  1   force =    -0.00015104    0.00035055   -0.00112203
     atom    4 type  1   force =    -0.00061799    0.00044243    0.00068571
     atom    5 type  1   force =     0.00030172   -0.00060355    0.00005257

     Total force =     0.002201     Total SCF correction =     0.000030

     number of scf cycles    =  50
     number of bfgs steps    =  48

     energy   old            =    -329.4936483933 Ry
     energy   new            =    -329.4936580065 Ry

     CASE: energy  _new < energy  _old

     new trust radius        =       0.0152532138 bohr
     new conv_thr            =            1.0E-10 Ry

ATOMIC_POSITIONS (bohr)
Au      -1.502954731   2.249164912  -1.151529243
Au      -0.606884694   4.204497156   3.534360679
Au       3.092417597   1.393741747   0.762759912
Au       3.985395288   3.343489560   5.762819842
Au       7.561306540   0.801865625   3.041446811

     Writing output data file pwscf.save
     Check: negative starting charge=   -0.006361
     NEW-OLD atomic charge density approx. for the potential
     Check: negative starting charge=   -0.006362

     negative rho (up, down):  1.759E-05 0.000E+00

     Writing output data file pwscf.save

     General routines

     Parallel routines

   This run was terminated on:  14:10:33   3Aug2017

   JOB DONE.