     Program PWSCF v.6.0 (svn rev. 13079) starts on  3Aug2017 at 22: 4: 2

     Current dimensions of program PWSCF are:
     Max number of different atomic species (ntypx) = 10
     Max number of k-points (npk) =  40000
     Max angular momentum in pseudopotentials (lmaxx) =  3
     Message from routine iosys:
     pot_extrapolation='second-order' not available, using 'atomic'
     Message from routine iosys:
     wfc_extrapolation='second-order' not available, using 'atomic'

     Subspace diagonalization in iterative solution of the eigenvalue problem:
     a serial algorithm will be used

     bravais-lattice index     =            1
     lattice parameter (alat)  =      20.0000  a.u.
     unit-cell volume          =    8000.0000 (a.u.)^3
     number of atoms/cell      =            5
     number of atomic types    =            1
     number of electrons       =        55.00
     number of Kohn-Sham states=           34
     kinetic-energy cutoff     =      30.0000  Ry
     charge density cutoff     =     120.0000  Ry
     convergence threshold     =      1.0E-08
     mixing beta               =       0.7000
     number of iterations used =            8  plain     mixing
     Exchange-correlation      = BLYP ( 1  3  1  3 0 0)
     nstep                     =           50

     celldm(1)=  20.000000  celldm(2)=   0.000000  celldm(3)=   0.000000
     celldm(4)=   0.000000  celldm(5)=   0.000000  celldm(6)=   0.000000

     crystal axes: (cart. coord. in units of alat)
               a(1) = (   1.000000   0.000000   0.000000 )
               a(2) = (   0.000000   1.000000   0.000000 )
               a(3) = (   0.000000   0.000000   1.000000 )

     reciprocal axes: (cart. coord. in units 2 pi/alat)
               b(1) = (  1.000000  0.000000  0.000000 )
               b(2) = (  0.000000  1.000000  0.000000 )
               b(3) = (  0.000000  0.000000  1.000000 )

     PseudoPot. # 1 for Au read from file:
     ./Au.blyp-d-hgh.UPF
     MD5 check sum: c10d8bae01f806c36a1643a1c69a8479
     Pseudo is Norm-conserving, Zval = 11.0
     Generated in analytical, separable form
     Using radial grid of 1279 points,  6 beta functions with:
                l(1) =   0
                l(2) =   0
                l(3) =   1
                l(4) =   1
                l(5) =   2
                l(6) =   2

     atomic species   valence    mass     pseudopotential
        Au            11.00    28.08600     Au( 1.00)

     No symmetry found

   Cartesian axes

     site n.     atom                  positions (alat units)
         1           Au  tau(   1) = (  -0.0848916   0.1017670  -0.0358047  )
         2           Au  tau(   2) = (  -0.0289575   0.1286995   0.2246103  )
         3           Au  tau(   3) = (   0.1520269   0.0663626   0.0260973  )
         4           Au  tau(   4) = (   0.2064065   0.1901070   0.2734253  )
         5           Au  tau(   5) = (   0.3796791   0.0757364   0.1287766  )

     number of k points=     1  Marzari-Vanderbilt smearing, width (Ry)=  0.0250
                       cart. coord. in units 2pi/alat
        k(    1) = (   0.0000000   0.0000000   0.0000000), wk =   2.0000000

     Initial potential from superposition of free atoms
     Check: negative starting charge=   -0.006361

     starting charge   54.99940, renormalised to   55.00000

     negative rho (up, down):  6.361E-03 0.000E+00
     Starting wfc are   45 randomized atomic wfcs

     Self-consistent Calculation

     iteration #  1     ecut=    30.00 Ry     beta=0.70
     Davidson diagonalization with overlap
     ethr =  1.00E-02,  avg # of iterations =  3.0

     Threshold (ethr) on eigenvalues was too large:
     Diagonalizing with lowered threshold

     Davidson diagonalization with overlap
     ethr =  4.05E-04,  avg # of iterations =  9.0

     negative rho (up, down):  8.675E-04 0.000E+00

     total energy              =    -329.36877642 Ry
     Harris-Foulkes estimate   =    -329.53792930 Ry
     estimated scf accuracy    <       0.28117415 Ry

[...]

     End of self-consistent calculation

          k = 0.0000 0.0000 0.0000 ( 22119 PWs)   bands (ev):

    -8.4663  -7.7630  -7.6800  -7.2321  -7.0809  -6.8148  -6.6474  -6.4678
    -6.2438  -5.9956  -5.9421  -5.7776  -5.7503  -5.6542  -5.4948  -5.3497
    -5.2738  -5.2280  -5.2078  -5.1879  -5.1229  -5.1165  -4.9218  -4.8979
    -4.8074  -4.6281  -4.3670  -3.8178  -2.3918  -2.2275  -0.4831  -0.2312
     0.4625   0.8665

     the Fermi energy is    -3.8144 ev

!    total energy              =    -329.48098157 Ry
     Harris-Foulkes estimate   =    -329.48098157 Ry
     estimated scf accuracy    <          1.7E-09 Ry

     The total energy is the sum of the following terms:

     one-electron contribution =    -612.99940095 Ry
     hartree contribution      =     327.97661990 Ry
     xc contribution           =     -51.43165741 Ry
     ewald contribution        =       6.97163405 Ry
     smearing contrib. (-TS)   =       0.00182283 Ry

     convergence has been achieved in  13 iterations

     Forces acting on atoms (Ry/au):

     atom    1 type  1   force =    -0.01218505   -0.00172005    0.00560226
     atom    2 type  1   force =    -0.02361268   -0.00481148   -0.02211043
     atom    3 type  1   force =     0.00188967    0.00453611    0.00961862
     atom    4 type  1   force =     0.02063822    0.00502819    0.00832179
     atom    5 type  1   force =     0.01326985   -0.00303278   -0.00143223

     Total force =     0.045573     Total SCF correction =     0.000185

     BFGS Geometry Optimization

     number of scf cycles    =   1
     number of bfgs steps    =   0

     energy   new            =    -329.4809815676 Ry

     new trust radius        =       0.0327044364 bohr
     new conv_thr            =       0.0000000100 Ry

ATOMIC_POSITIONS (bohr)
Au      -1.710016054   2.033620952  -0.710491740
Au      -0.602762681   2.569178525   4.470095569
Au       3.042427672   1.331788108   0.531564618
Au       4.148769216   3.807168195   5.476826786
Au       7.606852847   1.511695220   2.574099766

     Writing output data file pwscf.save
     Check: negative starting charge=   -0.006361
     NEW-OLD atomic charge density approx. for the potential
     Check: negative starting charge=   -0.006356

[...]

     energy   old            =    -329.4809815676 Ry
     energy   new            =    -329.4827956185 Ry

     CASE: energy  _new < energy  _old

[...]

     number of scf cycles    =  24
     number of bfgs steps    =  23

     energy   old            =    -329.4910282043 Ry
     energy   new            =    -329.4910426971 Ry

     CASE: energy  _new < energy  _old

     new trust radius        =       0.0063591212 bohr
     new conv_thr            =            1.0E-10 Ry

ATOMIC_POSITIONS (bohr)
Au      -1.780626123   1.632488446  -0.660248718
Au      -0.771996830   3.119717991   4.175276140
Au       3.084277889   1.619774446   0.646766433
Au       4.166421781   3.333263003   5.694417135
Au       7.787194283   1.548207114   2.485884011

     Writing output data file pwscf.save
     Check: negative starting charge=   -0.006498
     NEW-OLD atomic charge density approx. for the potential
     Check: negative starting charge=   -0.006491

     negative rho (up, down):  8.999E-07 0.000E+00

     Self-consistent Calculation

[...]

     Threshold (ethr) on eigenvalues was too large:
     Diagonalizing with lowered threshold

     Davidson diagonalization with overlap
     ethr =  1.26E-08,  avg # of iterations =  2.0

[...]

     total energy              =    -329.49105822 Ry
     Harris-Foulkes estimate   =    -329.49105820 Ry
     estimated scf accuracy    <          1.3E-10 Ry

     iteration #  9     ecut=    30.00 Ry     beta=0.70
     Davidson diagonalization with overlap
     ethr =  2.38E-13,  avg # of iterations =  2.0

     End of self-consistent calculation

          k = 0.0000 0.0000 0.0000 ( 22119 PWs)   bands (ev):

    -8.5163  -7.7893  -7.6568  -7.2366  -6.8661  -6.8224  -6.6267  -6.4816
    -6.3079  -6.0772  -5.9627  -5.7745  -5.7392  -5.6828  -5.4565  -5.3730
    -5.3139  -5.2451  -5.1988  -5.1814  -5.1781  -5.1257  -4.9954  -4.9207
    -4.8357  -4.7394  -4.4690  -3.7832  -2.5081  -2.1880  -0.5709  -0.2011
     0.5186   0.8857

     the Fermi energy is    -3.7524 ev

!    total energy              =    -329.49105822 Ry
     Harris-Foulkes estimate   =    -329.49105822 Ry
     estimated scf accuracy    <          1.3E-11 Ry

     The total energy is the sum of the following terms:

     one-electron contribution =    -610.21269144 Ry
     hartree contribution      =     326.53544570 Ry
     xc contribution           =     -51.40474918 Ry
     ewald contribution        =       5.59490430 Ry
     smearing contrib. (-TS)   =      -0.00396761 Ry

     convergence has been achieved in   9 iterations

     Forces acting on atoms (Ry/au):

     atom    1 type  1   force =    -0.00067105    0.00038674   -0.00061382
     atom    2 type  1   force =    -0.00040423    0.00007467   -0.00061661
     atom    3 type  1   force =     0.00087245   -0.00039238    0.00050051
     atom    4 type  1   force =     0.00099997   -0.00072720    0.00020437
     atom    5 type  1   force =    -0.00079713    0.00065817    0.00052554

     Total force =     0.002368     Total SCF correction =     0.000020

     bfgs converged in  25 scf cycles and  24 bfgs steps
     (criteria: energy <  1.0E-04, force <  1.0E-03)

     End of BFGS Geometry Optimization

     Final energy   =    -329.4910582250 Ry
Begin final coordinates

ATOMIC_POSITIONS (bohr)
Au      -1.780626123   1.632488446  -0.660248718
Au      -0.771996830   3.119717991   4.175276140
Au       3.084277889   1.619774446   0.646766433
Au       4.166421781   3.333263003   5.694417135
Au       7.787194283   1.548207114   2.485884011
End final coordinates

     Writing output data file pwscf.save

     General routines

     Parallel routines

   This run was terminated on:  22: 5: 7   3Aug2017

   JOB DONE.