     Program PWSCF v.6.0 (svn rev. 13079) starts on  3Aug2017 at 12: 7:25

     Current dimensions of program PWSCF are:
     Max number of different atomic species (ntypx) = 10
     Max number of k-points (npk) =  40000
     Max angular momentum in pseudopotentials (lmaxx) =  3
     Message from routine iosys:
     pot_extrapolation='second-order' not available, using 'atomic'
     Message from routine iosys:
     wfc_extrapolation='second-order' not available, using 'atomic'

     Subspace diagonalization in iterative solution of the eigenvalue problem:
     a serial algorithm will be used

     bravais-lattice index     =            1
     lattice parameter (alat)  =      20.0000  a.u.
     unit-cell volume          =    8000.0000 (a.u.)^3
     number of atoms/cell      =            5
     number of atomic types    =            1
     number of electrons       =        55.00
     number of Kohn-Sham states=           34
     kinetic-energy cutoff     =      30.0000  Ry
     charge density cutoff     =     120.0000  Ry
     convergence threshold     =      1.0E-08
     mixing beta               =       0.7000
     number of iterations used =            8  plain     mixing
     Exchange-correlation      = BLYP ( 1  3  1  3 0 0)
     nstep                     =           50

     celldm(1)=  20.000000  celldm(2)=   0.000000  celldm(3)=   0.000000
     celldm(4)=   0.000000  celldm(5)=   0.000000  celldm(6)=   0.000000

     crystal axes: (cart. coord. in units of alat)
               a(1) = (   1.000000   0.000000   0.000000 )
               a(2) = (   0.000000   1.000000   0.000000 )
               a(3) = (   0.000000   0.000000   1.000000 )

     reciprocal axes: (cart. coord. in units 2 pi/alat)
               b(1) = (  1.000000  0.000000  0.000000 )
               b(2) = (  0.000000  1.000000  0.000000 )
               b(3) = (  0.000000  0.000000  1.000000 )

     PseudoPot. # 1 for Au read from file:
     ./Au.blyp-d-hgh.UPF
     MD5 check sum: c10d8bae01f806c36a1643a1c69a8479
     Pseudo is Norm-conserving, Zval = 11.0
     Generated in analytical, separable form
     Using radial grid of 1279 points,  6 beta functions with:
                l(1) =   0
                l(2) =   0
                l(3) =   1
                l(4) =   1
                l(5) =   2
                l(6) =   2

     atomic species   valence    mass     pseudopotential
        Au            11.00    28.08600     Au( 1.00)

     No symmetry found

   Cartesian axes

     site n.     atom                  positions (alat units)
         1           Au  tau(   1) = (  -0.0833674   0.0781635  -0.0315197  )
         2           Au  tau(   2) = (  -0.0459473   0.1807864   0.1977261  )
         3           Au  tau(   3) = (   0.1579443   0.0592742   0.0342454  )
         4           Au  tau(   4) = (   0.2004141   0.2170685   0.2565641  )
         5           Au  tau(   5) = (   0.3830486   0.0780991   0.1482772  )

     number of k points=     1  Marzari-Vanderbilt smearing, width (Ry)=  0.0250
                       cart. coord. in units 2pi/alat
        k(    1) = (   0.0000000   0.0000000   0.0000000), wk =   2.0000000

     Initial potential from superposition of free atoms
     Check: negative starting charge=   -0.006379

     starting charge   54.99940, renormalised to   55.00000

     negative rho (up, down):  6.379E-03 0.000E+00
     Starting wfc are   45 randomized atomic wfcs

     Self-consistent Calculation

     iteration #  1     ecut=    30.00 Ry     beta=0.70
     Davidson diagonalization with overlap
     ethr =  1.00E-02,  avg # of iterations =  3.0

     Threshold (ethr) on eigenvalues was too large:
     Diagonalizing with lowered threshold

     Davidson diagonalization with overlap
     ethr =  4.04E-04,  avg # of iterations =  7.0

     negative rho (up, down):  8.585E-04 0.000E+00

     total energy              =    -329.37569287 Ry
     Harris-Foulkes estimate   =    -329.54406542 Ry
     estimated scf accuracy    <       0.27946606 Ry

[...]

     End of self-consistent calculation

          k = 0.0000 0.0000 0.0000 ( 22119 PWs)   bands (ev):

    -8.3925  -7.7266  -7.6242  -7.1731  -6.9989  -6.7648  -6.7485  -6.4466
    -6.2486  -6.0732  -5.9767  -5.7510  -5.7117  -5.6667  -5.4372  -5.3343
    -5.3012  -5.2329  -5.1825  -5.1775  -5.1630  -5.1358  -4.9777  -4.9143
    -4.8543  -4.6482  -4.3964  -3.7831  -2.5106  -2.1525  -0.5130  -0.1912
     0.5363   0.7620

     the Fermi energy is    -3.7653 ev

!    total energy              =    -329.48718235 Ry
     Harris-Foulkes estimate   =    -329.48718237 Ry
     estimated scf accuracy    <          1.0E-08 Ry

     The total energy is the sum of the following terms:

     one-electron contribution =    -608.51446797 Ry
     hartree contribution      =     325.72750376 Ry
     xc contribution           =     -51.41252899 Ry
     ewald contribution        =       4.71346325 Ry
     smearing contrib. (-TS)   =      -0.00115239 Ry

     convergence has been achieved in  12 iterations

     Forces acting on atoms (Ry/au):

     atom    1 type  1   force =    -0.00580058   -0.00286302   -0.00623099
     atom    2 type  1   force =     0.00167513    0.00080777   -0.00274543
     atom    3 type  1   force =    -0.00143129    0.00596734    0.01143600
     atom    4 type  1   force =    -0.00050918   -0.00074360    0.00050353
     atom    5 type  1   force =     0.00606591   -0.00316848   -0.00296312

     Total force =     0.017798     Total SCF correction =     0.000323

     BFGS Geometry Optimization

     number of scf cycles    =   1
     number of bfgs steps    =   0

     energy   new            =    -329.4871823508 Ry

     new trust radius        =       0.0129784401 bohr
     new conv_thr            =       0.0000000100 Ry

ATOMIC_POSITIONS (bohr)
Au      -1.673148579   1.560406977  -0.636624988
Au      -0.917269871   3.616534766   3.951775573
Au       3.157454713   1.191450338   0.696344005
Au       4.007773822   4.340626404   5.131786530
Au       7.667038915   1.558813515   2.962581880

     Writing output data file pwscf.save
     Check: negative starting charge=   -0.006379
     NEW-OLD atomic charge density approx. for the potential
     Check: negative starting charge=   -0.006382

[...]

     energy   old            =    -329.4871823508 Ry
     energy   new            =    -329.4874871876 Ry

     CASE: energy  _new < energy  _old

     WARNING: bfgs curvature condition failed, Theta= 0.867
     new trust radius        =       0.0142762841 bohr
     new conv_thr            =       0.0000000003 Ry

[...]

     WARNING: bfgs curvature condition failed, Theta= 0.647
     new trust radius        =       0.0696345556 bohr
     new conv_thr            =            1.0E-10 Ry

[...]

     WARNING: info= 12 for Hessian
     new trust radius        =       0.0427639282 bohr
     new conv_thr            =            1.0E-10 Ry

[...]

     WARNING: info= 12 for Hessian
     new trust radius        =       0.0093187657 bohr
     new conv_thr            =            1.0E-10 Ry

[...]

     WARNING: info= 12 for Hessian
     uphill step: resetting bfgs history

[...]

     number of scf cycles    =  38
     number of bfgs steps    =  37

     energy   old            =    -329.4920421970 Ry
     energy   new            =    -329.4920507478 Ry

     CASE: energy  _new < energy  _old

     new trust radius        =       0.0068929410 bohr
     new conv_thr            =            1.0E-10 Ry

ATOMIC_POSITIONS (bohr)
Au      -1.735314135   1.417258064  -0.803249507
Au      -0.768247192   3.951425426   3.608277197
Au       3.032652798   1.313045375   0.889825197
Au       4.052677985   4.087819364   5.522957075
Au       7.660079545   1.498283771   2.888053038

     Writing output data file pwscf.save
     Check: negative starting charge=   -0.006368
     NEW-OLD atomic charge density approx. for the potential
     Check: negative starting charge=   -0.006363

     negative rho (up, down):  1.247E-06 0.000E+00

     Self-consistent Calculation

[...]

     Threshold (ethr) on eigenvalues was too large:
     Diagonalizing with lowered threshold

     Davidson diagonalization with overlap
     ethr =  1.70E-08,  avg # of iterations =  2.0

[...]

     total energy              =    -329.49206082 Ry
     Harris-Foulkes estimate   =    -329.49206079 Ry
     estimated scf accuracy    <          2.1E-10 Ry

     iteration #  9     ecut=    30.00 Ry     beta=0.70
     Davidson diagonalization with overlap
     ethr =  3.85E-13,  avg # of iterations =  2.0

     End of self-consistent calculation

          k = 0.0000 0.0000 0.0000 ( 22119 PWs)   bands (ev):

    -8.5059  -7.7748  -7.6463  -7.2218  -6.8507  -6.8156  -6.5989  -6.4780
    -6.3026  -6.0791  -5.9506  -5.7657  -5.7287  -5.6840  -5.4586  -5.3625
    -5.3124  -5.2471  -5.1988  -5.1864  -5.1679  -5.1247  -4.9972  -4.9234
    -4.8483  -4.7235  -4.4836  -3.7798  -2.4709  -2.2093  -0.5451  -0.1634
     0.4860   0.8564

     the Fermi energy is    -3.7469 ev

!    total energy              =    -329.49206082 Ry
     Harris-Foulkes estimate   =    -329.49206082 Ry
     estimated scf accuracy    <          3.2E-11 Ry

     The total energy is the sum of the following terms:

     one-electron contribution =    -607.28905332 Ry
     hartree contribution      =     325.07928131 Ry
     xc contribution           =     -51.39795469 Ry
     ewald contribution        =       4.12006695 Ry
     smearing contrib. (-TS)   =      -0.00440107 Ry

     convergence has been achieved in   9 iterations

     Forces acting on atoms (Ry/au):

     atom    1 type  1   force =     0.00055072   -0.00002905    0.00023817
     atom    2 type  1   force =    -0.00004656   -0.00038082   -0.00053745
     atom    3 type  1   force =    -0.00024795    0.00056624   -0.00071525
     atom    4 type  1   force =     0.00011038    0.00060101    0.00013575
     atom    5 type  1   force =    -0.00036659   -0.00075738    0.00087878

     Total force =     0.001888     Total SCF correction =     0.000026

     bfgs converged in  39 scf cycles and  38 bfgs steps
     (criteria: energy <  1.0E-04, force <  1.0E-03)

     End of BFGS Geometry Optimization

     Final energy   =    -329.4920608201 Ry
Begin final coordinates

ATOMIC_POSITIONS (bohr)
Au      -1.735314135   1.417258064  -0.803249507
Au      -0.768247192   3.951425426   3.608277197
Au       3.032652798   1.313045375   0.889825197
Au       4.052677985   4.087819364   5.522957075
Au       7.660079545   1.498283771   2.888053038
End final coordinates

     Writing output data file pwscf.save

     General routines

     Parallel routines

   This run was terminated on:  12: 9:25   3Aug2017

   JOB DONE.