     Program PWSCF v.6.0 (svn rev. 13079) starts on  3Aug2017 at 11: 4:45

     Current dimensions of program PWSCF are:
     Max number of different atomic species (ntypx) = 10
     Max number of k-points (npk) =  40000
     Max angular momentum in pseudopotentials (lmaxx) =  3
     Message from routine iosys:
     pot_extrapolation='second-order' not available, using 'atomic'
     Message from routine iosys:
     wfc_extrapolation='second-order' not available, using 'atomic'

     Subspace diagonalization in iterative solution of the eigenvalue problem:
     a serial algorithm will be used

     bravais-lattice index     =            1
     lattice parameter (alat)  =      20.0000  a.u.
     unit-cell volume          =    8000.0000 (a.u.)^3
     number of atoms/cell      =            5
     number of atomic types    =            1
     number of electrons       =        55.00
     number of Kohn-Sham states=           34
     kinetic-energy cutoff     =      30.0000  Ry
     charge density cutoff     =     120.0000  Ry
     convergence threshold     =      1.0E-08
     mixing beta               =       0.7000
     number of iterations used =            8  plain     mixing
     Exchange-correlation      = BLYP ( 1  3  1  3 0 0)
     nstep                     =           50

     celldm(1)=  20.000000  celldm(2)=   0.000000  celldm(3)=   0.000000
     celldm(4)=   0.000000  celldm(5)=   0.000000  celldm(6)=   0.000000

     crystal axes: (cart. coord. in units of alat)
               a(1) = (   1.000000   0.000000   0.000000 )
               a(2) = (   0.000000   1.000000   0.000000 )
               a(3) = (   0.000000   0.000000   1.000000 )

     reciprocal axes: (cart. coord. in units 2 pi/alat)
               b(1) = (  1.000000  0.000000  0.000000 )
               b(2) = (  0.000000  1.000000  0.000000 )
               b(3) = (  0.000000  0.000000  1.000000 )

     PseudoPot. # 1 for Au read from file:
     ./Au.blyp-d-hgh.UPF
     MD5 check sum: c10d8bae01f806c36a1643a1c69a8479
     Pseudo is Norm-conserving, Zval = 11.0
     Generated in analytical, separable form
     Using radial grid of 1279 points,  6 beta functions with:
                l(1) =   0
                l(2) =   0
                l(3) =   1
                l(4) =   1
                l(5) =   2
                l(6) =   2

     atomic species   valence    mass     pseudopotential
        Au            11.00    28.08600     Au( 1.00)

     No symmetry found

   Cartesian axes

     site n.     atom                  positions (alat units)
         1           Au  tau(   1) = (  -0.0848829   0.0689620  -0.0324439  )
         2           Au  tau(   2) = (  -0.0469383   0.1852808   0.1895208  )
         3           Au  tau(   3) = (   0.1566691   0.0533912   0.0362812  )
         4           Au  tau(   4) = (   0.1974420   0.2104693   0.2613768  )
         5           Au  tau(   5) = (   0.3811720   0.0740014   0.1523719  )

     number of k points=     1  Marzari-Vanderbilt smearing, width (Ry)=  0.0250
                       cart. coord. in units 2pi/alat
        k(    1) = (   0.0000000   0.0000000   0.0000000), wk =   2.0000000

     Initial potential from superposition of free atoms
     Check: negative starting charge=   -0.006392

     starting charge   54.99940, renormalised to   55.00000

     negative rho (up, down):  6.392E-03 0.000E+00
     Starting wfc are   45 randomized atomic wfcs

     Self-consistent Calculation

     iteration #  1     ecut=    30.00 Ry     beta=0.70
     Davidson diagonalization with overlap
     ethr =  1.00E-02,  avg # of iterations =  3.0

     Threshold (ethr) on eigenvalues was too large:
     Diagonalizing with lowered threshold

     Davidson diagonalization with overlap
     ethr =  4.04E-04,  avg # of iterations =  5.0

     negative rho (up, down):  8.565E-04 0.000E+00

     total energy              =    -329.37690325 Ry
     Harris-Foulkes estimate   =    -329.54536896 Ry
     estimated scf accuracy    <       0.27957916 Ry

[...]

     End of self-consistent calculation

          k = 0.0000 0.0000 0.0000 ( 22119 PWs)   bands (ev):

    -8.3810  -7.7219  -7.6293  -7.1704  -6.9757  -6.7546  -6.7450  -6.4519
    -6.2626  -6.0651  -5.9820  -5.7514  -5.7105  -5.6602  -5.4131  -5.3365
    -5.3216  -5.2223  -5.1808  -5.1719  -5.1597  -5.1364  -4.9914  -4.8882
    -4.8503  -4.6843  -4.3912  -3.7902  -2.5187  -2.1359  -0.5240  -0.1934
     0.5240   0.7938

     the Fermi energy is    -3.7734 ev

!    total energy              =    -329.48827098 Ry
     Harris-Foulkes estimate   =    -329.48827097 Ry
     estimated scf accuracy    <          9.9E-09 Ry

     The total energy is the sum of the following terms:

     one-electron contribution =    -607.47789285 Ry
     hartree contribution      =     325.21159983 Ry
     xc contribution           =     -51.41137680 Ry
     ewald contribution        =       4.19043566 Ry
     smearing contrib. (-TS)   =      -0.00103681 Ry

     convergence has been achieved in  12 iterations

     Forces acting on atoms (Ry/au):

     atom    1 type  1   force =    -0.00265775   -0.00345928   -0.00815500
     atom    2 type  1   force =     0.00169359    0.00009589   -0.00038826
     atom    3 type  1   force =    -0.00263229    0.00953030    0.01273119
     atom    4 type  1   force =    -0.00060882   -0.00079652    0.00052852
     atom    5 type  1   force =     0.00420526   -0.00537040   -0.00471646

     Total force =     0.020456     Total SCF correction =     0.000305

     BFGS Geometry Optimization

     number of scf cycles    =   1
     number of bfgs steps    =   0

     energy   new            =    -329.4882709815 Ry

     new trust radius        =       0.0161195198 bohr
     new conv_thr            =       0.0000000100 Ry

ATOMIC_POSITIONS (bohr)
Au      -1.700315745   1.375781722  -0.657034001
Au      -0.937072412   3.705711893   3.790027744
Au       3.130750714   1.077354303   0.738355194
Au       3.948231180   4.208589484   5.228064522
Au       7.627646264   1.474658599   3.042720540

     Writing output data file pwscf.save
     Check: negative starting charge=   -0.006392
     NEW-OLD atomic charge density approx. for the potential
     Check: negative starting charge=   -0.006395

[...]

     energy   old            =    -329.4882709815 Ry
     energy   new            =    -329.4886724046 Ry

     CASE: energy  _new < energy  _old

     WARNING: bfgs curvature condition failed, Theta= 0.874
     new trust radius        =       0.0177314718 bohr
     new conv_thr            =       0.0000000004 Ry

[...]

     WARNING: bfgs curvature condition failed, Theta= 0.988
     new trust radius        =       0.0132610985 bohr
     new conv_thr            =            1.0E-10 Ry

[...]

     negative rho (up, down):  6.065E-06 0.000E+00

[...]

     WARNING: bfgs curvature condition failed, Theta= 0.566
     uphill step: resetting bfgs history

[...]

     number of scf cycles    =  31
     number of bfgs steps    =  30

     energy   old            =    -329.4927142925 Ry
     energy   new            =    -329.4927221452 Ry

     CASE: energy  _new < energy  _old

     new trust radius        =       0.0026419723 bohr
     new conv_thr            =            1.0E-10 Ry

ATOMIC_POSITIONS (bohr)
Au      -1.630918528   1.372843640  -0.964833033
Au      -0.795168255   4.032637301   3.372651707
Au       3.053217218   1.148385987   0.944257248
Au       3.870549682   3.953076789   5.608155428
Au       7.571559884   1.335152282   3.181902650

     Writing output data file pwscf.save
     Check: negative starting charge=   -0.006288
     NEW-OLD atomic charge density approx. for the potential
     Check: negative starting charge=   -0.006288

     Self-consistent Calculation

[...]

     Threshold (ethr) on eigenvalues was too large:
     Diagonalizing with lowered threshold

     Davidson diagonalization with overlap
     ethr =  1.58E-09,  avg # of iterations =  3.0

[...]

     total energy              =    -329.49272847 Ry
     Harris-Foulkes estimate   =    -329.49272848 Ry
     estimated scf accuracy    <          1.0E-10 Ry

     iteration #  8     ecut=    30.00 Ry     beta=0.70
     Davidson diagonalization with overlap
     ethr =  1.90E-13,  avg # of iterations =  2.0

     End of self-consistent calculation

          k = 0.0000 0.0000 0.0000 ( 22119 PWs)   bands (ev):

    -8.4991  -7.7800  -7.6488  -7.2410  -6.8708  -6.8097  -6.6259  -6.4776
    -6.3129  -6.0656  -5.9706  -5.7668  -5.7282  -5.6850  -5.4517  -5.3674
    -5.3147  -5.2430  -5.1924  -5.1865  -5.1687  -5.1228  -5.0022  -4.9165
    -4.8490  -4.7236  -4.4733  -3.7725  -2.4581  -2.1964  -0.5361  -0.1595
     0.4674   0.8159

     the Fermi energy is    -3.7399 ev

!    total energy              =    -329.49272846 Ry
     Harris-Foulkes estimate   =    -329.49272847 Ry
     estimated scf accuracy    <          9.9E-12 Ry

     The total energy is the sum of the following terms:

     one-electron contribution =    -607.11882324 Ry
     hartree contribution      =     324.99166575 Ry
     xc contribution           =     -51.40005455 Ry
     ewald contribution        =       4.03885354 Ry
     smearing contrib. (-TS)   =      -0.00436995 Ry

     convergence has been achieved in   8 iterations

     Forces acting on atoms (Ry/au):

     atom    1 type  1   force =     0.00012462   -0.00011112   -0.00041648
     atom    2 type  1   force =     0.00004848    0.00080653   -0.00002879
     atom    3 type  1   force =    -0.00069662   -0.00040660    0.00014138
     atom    4 type  1   force =     0.00034902    0.00005670   -0.00021611
     atom    5 type  1   force =     0.00017450   -0.00034551    0.00051999

     Total force =     0.001455     Total SCF correction =     0.000013

     bfgs converged in  32 scf cycles and  31 bfgs steps
     (criteria: energy <  1.0E-04, force <  1.0E-03)

     End of BFGS Geometry Optimization

     Final energy   =    -329.4927284572 Ry
Begin final coordinates

ATOMIC_POSITIONS (bohr)
Au      -1.630918528   1.372843640  -0.964833033
Au      -0.795168255   4.032637301   3.372651707
Au       3.053217218   1.148385987   0.944257248
Au       3.870549682   3.953076789   5.608155428
Au       7.571559884   1.335152282   3.181902650
End final coordinates

     Writing output data file pwscf.save

     General routines

     Parallel routines

   This run was terminated on:  11: 6:15   3Aug2017

   JOB DONE.