     Program PWSCF v.6.0 (svn rev. 13079) starts on  3Aug2017 at 20:59:36

     Current dimensions of program PWSCF are:
     Max number of different atomic species (ntypx) = 10
     Max number of k-points (npk) =  40000
     Max angular momentum in pseudopotentials (lmaxx) =  3
     Message from routine iosys:
     pot_extrapolation='second-order' not available, using 'atomic'
     Message from routine iosys:
     wfc_extrapolation='second-order' not available, using 'atomic'

     Subspace diagonalization in iterative solution of the eigenvalue problem:
     a serial algorithm will be used

     bravais-lattice index     =            1
     lattice parameter (alat)  =      20.0000  a.u.
     unit-cell volume          =    8000.0000 (a.u.)^3
     number of atoms/cell      =            5
     number of atomic types    =            1
     number of electrons       =        55.00
     number of Kohn-Sham states=           34
     kinetic-energy cutoff     =      30.0000  Ry
     charge density cutoff     =     120.0000  Ry
     convergence threshold     =      1.0E-08
     mixing beta               =       0.7000
     number of iterations used =            8  plain     mixing
     Exchange-correlation      = BLYP ( 1  3  1  3 0 0)
     nstep                     =           50

     celldm(1)=  20.000000  celldm(2)=   0.000000  celldm(3)=   0.000000
     celldm(4)=   0.000000  celldm(5)=   0.000000  celldm(6)=   0.000000

     crystal axes: (cart. coord. in units of alat)
               a(1) = (   1.000000   0.000000   0.000000 )
               a(2) = (   0.000000   1.000000   0.000000 )
               a(3) = (   0.000000   0.000000   1.000000 )

     reciprocal axes: (cart. coord. in units 2 pi/alat)
               b(1) = (  1.000000  0.000000  0.000000 )
               b(2) = (  0.000000  1.000000  0.000000 )
               b(3) = (  0.000000  0.000000  1.000000 )

     PseudoPot. # 1 for Au read from file:
     ./Au.blyp-d-hgh.UPF
     MD5 check sum: c10d8bae01f806c36a1643a1c69a8479
     Pseudo is Norm-conserving, Zval = 11.0
     Generated in analytical, separable form
     Using radial grid of 1279 points,  6 beta functions with:
                l(1) =   0
                l(2) =   0
                l(3) =   1
                l(4) =   1
                l(5) =   2
                l(6) =   2

     atomic species   valence    mass     pseudopotential
        Au            11.00    28.08600     Au( 1.00)

     No symmetry found

   Cartesian axes

     site n.     atom                  positions (alat units)
         1           Au  tau(   1) = (  -0.0925055   0.1222932  -0.0289768  )
         2           Au  tau(   2) = (  -0.0317930   0.1638820   0.2143374  )
         3           Au  tau(   3) = (   0.1525506   0.0897033   0.0185369  )
         4           Au  tau(   4) = (   0.2145345   0.1915808   0.2756687  )
         5           Au  tau(   5) = (   0.3814329   0.0756177   0.1221902  )

     number of k points=     1  Marzari-Vanderbilt smearing, width (Ry)=  0.0250
                       cart. coord. in units 2pi/alat
        k(    1) = (   0.0000000   0.0000000   0.0000000), wk =   2.0000000

     Initial potential from superposition of free atoms
     Check: negative starting charge=   -0.006387

     starting charge   54.99940, renormalised to   55.00000

     negative rho (up, down):  6.387E-03 0.000E+00
     Starting wfc are   45 randomized atomic wfcs

     Self-consistent Calculation

     iteration #  1     ecut=    30.00 Ry     beta=0.70
     Davidson diagonalization with overlap
     ethr =  1.00E-02,  avg # of iterations =  3.0

     Threshold (ethr) on eigenvalues was too large:
     Diagonalizing with lowered threshold

     Davidson diagonalization with overlap
     ethr =  3.96E-04,  avg # of iterations =  6.0

     negative rho (up, down):  8.770E-04 0.000E+00

     total energy              =    -329.37819354 Ry
     Harris-Foulkes estimate   =    -329.54404798 Ry
     estimated scf accuracy    <       0.27620666 Ry

[...]

     End of self-consistent calculation

          k = 0.0000 0.0000 0.0000 ( 22119 PWs)   bands (ev):

    -8.4040  -7.7296  -7.6279  -7.1792  -6.9786  -6.7661  -6.7551  -6.4418
    -6.2487  -6.0598  -5.9761  -5.7591  -5.7137  -5.6736  -5.4476  -5.3299
    -5.3115  -5.2315  -5.1889  -5.1759  -5.1723  -5.1328  -4.9785  -4.9172
    -4.8408  -4.6719  -4.3943  -3.7883  -2.4977  -2.1740  -0.5208  -0.2311
     0.5334   0.7740

     the Fermi energy is    -3.7710 ev

!    total energy              =    -329.48732859 Ry
     Harris-Foulkes estimate   =    -329.48732864 Ry
     estimated scf accuracy    <          9.4E-09 Ry

     The total energy is the sum of the following terms:

     one-electron contribution =    -609.66886775 Ry
     hartree contribution      =     326.30238622 Ry
     xc contribution           =     -51.41373788 Ry
     ewald contribution        =       5.29398653 Ry
     smearing contrib. (-TS)   =      -0.00109570 Ry

     convergence has been achieved in  11 iterations

     Forces acting on atoms (Ry/au):

     atom    1 type  1   force =    -0.00518714   -0.00115389   -0.00756987
     atom    2 type  1   force =     0.00000437    0.00198962   -0.00204758
     atom    3 type  1   force =    -0.00217592    0.00338174    0.01074144
     atom    4 type  1   force =     0.00266268   -0.00137503    0.00082336
     atom    5 type  1   force =     0.00469601   -0.00284244   -0.00194735

     Total force =     0.016396     Total SCF correction =     0.000438

     BFGS Geometry Optimization

     number of scf cycles    =   1
     number of bfgs steps    =   0

     energy   new            =    -329.4873285873 Ry

     new trust radius        =       0.0114695011 bohr
     new conv_thr            =       0.0000000100 Ry

ATOMIC_POSITIONS (bohr)
Au      -1.855297141   2.444709109  -0.587106871
Au      -0.635855627   3.279629617   4.284700420
Au       3.048835078   1.797447743   0.381480445
Au       4.293353676   3.830240967   5.514197361
Au       7.633355013   1.509511564   2.441856645

     Writing output data file pwscf.save
     Check: negative starting charge=   -0.006387
     NEW-OLD atomic charge density approx. for the potential
     Check: negative starting charge=   -0.006380

[...]

     energy   old            =    -329.4873285873 Ry
     energy   new            =    -329.4875885904 Ry

     CASE: energy  _new < energy  _old

     WARNING: bfgs curvature condition failed, Theta= 0.856
     new trust radius        =       0.0126164513 bohr
     new conv_thr            =       0.0000000003 Ry

[...]

     WARNING: info= 10 for Hessian
     uphill step: resetting bfgs history

[...]

     WARNING: bfgs curvature condition failed, Theta= 0.452
     new trust radius        =       0.0516791205 bohr
     new conv_thr            =       0.0000000001 Ry

[...]

     number of scf cycles    =  42
     number of bfgs steps    =  41

     energy   old            =    -329.4919997562 Ry
     energy   new            =    -329.4920092417 Ry

     CASE: energy  _new < energy  _old

     new trust radius        =       0.0059326020 bohr
     new conv_thr            =            1.0E-10 Ry

ATOMIC_POSITIONS (bohr)
Au      -1.702626744   2.564903149  -0.834094596
Au      -0.741292254   3.894759897   4.052550068
Au       3.051436874   1.749783180   0.640686151
Au       4.155715365   3.345679496   5.649402812
Au       7.721157760   1.306413278   2.526583565

     Writing output data file pwscf.save
     Check: negative starting charge=   -0.006425
     NEW-OLD atomic charge density approx. for the potential
     Check: negative starting charge=   -0.006424

     negative rho (up, down):  3.371E-07 0.000E+00

     Self-consistent Calculation

[...]

     Threshold (ethr) on eigenvalues was too large:
     Diagonalizing with lowered threshold

     Davidson diagonalization with overlap
     ethr =  8.06E-09,  avg # of iterations =  2.0

[...]

     total energy              =    -329.49201980 Ry
     Harris-Foulkes estimate   =    -329.49201978 Ry
     estimated scf accuracy    <          1.8E-10 Ry

     iteration #  9     ecut=    30.00 Ry     beta=0.70
     Davidson diagonalization with overlap
     ethr =  3.25E-13,  avg # of iterations =  3.0

     End of self-consistent calculation

          k = 0.0000 0.0000 0.0000 ( 22119 PWs)   bands (ev):

    -8.5012  -7.7746  -7.6425  -7.2267  -6.8749  -6.8123  -6.6126  -6.4768
    -6.3053  -6.0680  -5.9632  -5.7720  -5.7295  -5.6805  -5.4478  -5.3656
    -5.3167  -5.2377  -5.1988  -5.1879  -5.1682  -5.1265  -5.0034  -4.9207
    -4.8596  -4.7188  -4.4768  -3.7807  -2.4911  -2.1808  -0.5519  -0.2018
     0.5298   0.8497

     the Fermi energy is    -3.7487 ev

!    total energy              =    -329.49201980 Ry
     Harris-Foulkes estimate   =    -329.49201980 Ry
     estimated scf accuracy    <          5.2E-11 Ry

     The total energy is the sum of the following terms:

     one-electron contribution =    -608.27980525 Ry
     hartree contribution      =     325.57378990 Ry
     xc contribution           =     -51.40038210 Ry
     ewald contribution        =       4.61856781 Ry
     smearing contrib. (-TS)   =      -0.00419015 Ry

     convergence has been achieved in   9 iterations

     Forces acting on atoms (Ry/au):

     atom    1 type  1   force =    -0.00071129   -0.00012488   -0.00050840
     atom    2 type  1   force =     0.00078111    0.00022007   -0.00058651
     atom    3 type  1   force =    -0.00037526    0.00038698    0.00030543
     atom    4 type  1   force =     0.00006497   -0.00025032    0.00064290
     atom    5 type  1   force =     0.00024047   -0.00023185    0.00014657

     Total force =     0.001667     Total SCF correction =     0.000027

     bfgs converged in  43 scf cycles and  42 bfgs steps
     (criteria: energy <  1.0E-04, force <  1.0E-03)

     End of BFGS Geometry Optimization

     Final energy   =    -329.4920197981 Ry
Begin final coordinates

ATOMIC_POSITIONS (bohr)
Au      -1.702626744   2.564903149  -0.834094596
Au      -0.741292254   3.894759897   4.052550068
Au       3.051436874   1.749783180   0.640686151
Au       4.155715365   3.345679496   5.649402812
Au       7.721157760   1.306413278   2.526583565
End final coordinates

     Writing output data file pwscf.save

     General routines

     Parallel routines

   This run was terminated on:  21: 1:26   3Aug2017

   JOB DONE.