     Program PWSCF v.6.0 (svn rev. 13079) starts on  4Aug2017 at  1: 7:58

     Current dimensions of program PWSCF are:
     Max number of different atomic species (ntypx) = 10
     Max number of k-points (npk) =  40000
     Max angular momentum in pseudopotentials (lmaxx) =  3
     Message from routine iosys:
     pot_extrapolation='second-order' not available, using 'atomic'
     Message from routine iosys:
     wfc_extrapolation='second-order' not available, using 'atomic'

     Subspace diagonalization in iterative solution of the eigenvalue problem:
     a serial algorithm will be used

     bravais-lattice index     =            1
     lattice parameter (alat)  =      20.0000  a.u.
     unit-cell volume          =    8000.0000 (a.u.)^3
     number of atoms/cell      =            5
     number of atomic types    =            1
     number of electrons       =        55.00
     number of Kohn-Sham states=           34
     kinetic-energy cutoff     =      30.0000  Ry
     charge density cutoff     =     120.0000  Ry
     convergence threshold     =      1.0E-08
     mixing beta               =       0.7000
     number of iterations used =            8  plain     mixing
     Exchange-correlation      = BLYP ( 1  3  1  3 0 0)
     nstep                     =           50

     celldm(1)=  20.000000  celldm(2)=   0.000000  celldm(3)=   0.000000
     celldm(4)=   0.000000  celldm(5)=   0.000000  celldm(6)=   0.000000

     crystal axes: (cart. coord. in units of alat)
               a(1) = (   1.000000   0.000000   0.000000 )
               a(2) = (   0.000000   1.000000   0.000000 )
               a(3) = (   0.000000   0.000000   1.000000 )

     reciprocal axes: (cart. coord. in units 2 pi/alat)
               b(1) = (  1.000000  0.000000  0.000000 )
               b(2) = (  0.000000  1.000000  0.000000 )
               b(3) = (  0.000000  0.000000  1.000000 )

     PseudoPot. # 1 for Au read from file:
     ./Au.blyp-d-hgh.UPF
     MD5 check sum: c10d8bae01f806c36a1643a1c69a8479
     Pseudo is Norm-conserving, Zval = 11.0
     Generated in analytical, separable form
     Using radial grid of 1279 points,  6 beta functions with:
                l(1) =   0
                l(2) =   0
                l(3) =   1
                l(4) =   1
                l(5) =   2
                l(6) =   2

     atomic species   valence    mass     pseudopotential
        Au            11.00    28.08600     Au( 1.00)

     No symmetry found

   Cartesian axes

     site n.     atom                  positions (alat units)
         1           Au  tau(   1) = (  -0.1182262   0.1007650  -0.0185562  )
         2           Au  tau(   2) = (  -0.0169994   0.1825726   0.2031474  )
         3           Au  tau(   3) = (   0.1362259   0.0999003   0.0205539  )
         4           Au  tau(   4) = (   0.2197535   0.2161366   0.2736191  )
         5           Au  tau(   5) = (   0.3691671   0.0589160   0.1209380  )

     number of k points=     1  Marzari-Vanderbilt smearing, width (Ry)=  0.0250
                       cart. coord. in units 2pi/alat
        k(    1) = (   0.0000000   0.0000000   0.0000000), wk =   2.0000000

     Initial potential from superposition of free atoms
     Check: negative starting charge=   -0.006479

     starting charge   54.99940, renormalised to   55.00000

     negative rho (up, down):  6.480E-03 0.000E+00
     Starting wfc are   45 randomized atomic wfcs

     Self-consistent Calculation

     iteration #  1     ecut=    30.00 Ry     beta=0.70
     Davidson diagonalization with overlap
     ethr =  1.00E-02,  avg # of iterations =  3.0

     Threshold (ethr) on eigenvalues was too large:
     Diagonalizing with lowered threshold

     Davidson diagonalization with overlap
     ethr =  4.19E-04,  avg # of iterations =  8.0

     negative rho (up, down):  8.808E-04 0.000E+00

     total energy              =    -329.36625679 Ry
     Harris-Foulkes estimate   =    -329.53982184 Ry
     estimated scf accuracy    <       0.28814211 Ry

[...]

     End of self-consistent calculation

          k = 0.0000 0.0000 0.0000 ( 22119 PWs)   bands (ev):

    -8.4450  -7.8004  -7.6761  -7.4071  -6.9973  -6.7621  -6.6223  -6.4314
    -6.2799  -5.9866  -5.8739  -5.7938  -5.6579  -5.6016  -5.4406  -5.4010
    -5.3656  -5.2579  -5.2047  -5.1772  -5.1598  -5.1113  -5.0065  -4.9184
    -4.8663  -4.5405  -4.4996  -3.7903  -2.5617  -2.1227  -0.5215  -0.1857
     0.4789   0.7001

     the Fermi energy is    -3.7665 ev

!    total energy              =    -329.48175384 Ry
     Harris-Foulkes estimate   =    -329.48175384 Ry
     estimated scf accuracy    <          7.6E-10 Ry

     The total energy is the sum of the following terms:

     one-electron contribution =    -608.90920996 Ry
     hartree contribution      =     325.90621629 Ry
     xc contribution           =     -51.40870609 Ry
     ewald contribution        =       4.93205360 Ry
     smearing contrib. (-TS)   =      -0.00210767 Ry

     convergence has been achieved in  13 iterations

     Forces acting on atoms (Ry/au):

     atom    1 type  1   force =     0.00460987    0.00058252   -0.00268714
     atom    2 type  1   force =    -0.02815559    0.00632212    0.00799907
     atom    3 type  1   force =     0.01466764   -0.01193508   -0.00532248
     atom    4 type  1   force =     0.02460839   -0.00583843   -0.00154212
     atom    5 type  1   force =    -0.01573030    0.01086886    0.00155268

     Total force =     0.048181     Total SCF correction =     0.000130

     BFGS Geometry Optimization

     number of scf cycles    =   1
     number of bfgs steps    =   0

     energy   new            =    -329.4817538365 Ry

     new trust radius        =       0.0299448093 bohr
     new conv_thr            =       0.0000000100 Ry

ATOMIC_POSITIONS (bohr)
Au      -2.359913135   2.015883523  -0.373810142
Au      -0.368143592   3.657773117   4.070948069
Au       2.739186638   1.986070924   0.405755517
Au       4.419678388   4.316893575   5.470840876
Au       7.367611700   1.189189862   2.420313680

     Writing output data file pwscf.save
     Check: negative starting charge=   -0.006479
     NEW-OLD atomic charge density approx. for the potential
     Check: negative starting charge=   -0.006487

[...]

     energy   old            =    -329.4817538365 Ry
     energy   new            =    -329.4837461727 Ry

     CASE: energy  _new < energy  _old

[...]

     Threshold (ethr) on eigenvalues was too large:
     Diagonalizing with lowered threshold

     Davidson diagonalization with overlap
     ethr =  8.71E-08,  avg # of iterations =  1.0

[...]

     WARNING: bfgs curvature condition failed, Theta= 0.437
     new trust radius        =       0.0473012671 bohr
     new conv_thr            =            1.0E-10 Ry

[...]

     iteration #  1     ecut=    30.00 Ry     beta=0.70
     Davidson diagonalization with overlap
     c_bands:  1 eigenvalues not converged
     ethr =  1.00E-06,  avg # of iterations = 20.0

[...]

     iteration #  1     ecut=    30.00 Ry     beta=0.70
     Davidson diagonalization with overlap
     c_bands:  1 eigenvalues not converged
     ethr =  1.00E-06,  avg # of iterations = 20.0

[...]

     WARNING: bfgs curvature condition failed, Theta= 0.719
     new trust radius        =       0.0823633005 bohr
     new conv_thr            =       0.0000000002 Ry

[...]

     CASE: energy  _new > energy  _old

     new trust radius        =       0.0403004514 bohr
     new conv_thr            =       0.0000000002 Ry

[...]

     WARNING: info=  6 for Hessian
     new trust radius        =       0.0195218002 bohr
     new conv_thr            =            1.0E-10 Ry

[...]

     Self-consistent Calculation

[...]

     total energy              =    -329.49245456 Ry
     Harris-Foulkes estimate   =    -329.49245457 Ry
     estimated scf accuracy    <          1.4E-10 Ry

     iteration # 11     ecut=    30.00 Ry     beta=0.70
     Davidson diagonalization with overlap
     ethr =  2.48E-13,  avg # of iterations =  3.0

     End of self-consistent calculation

          k = 0.0000 0.0000 0.0000 ( 22119 PWs)   bands (ev):

    -8.5134  -7.7826  -7.6503  -7.2282  -6.8601  -6.8207  -6.6174  -6.4780
    -6.3050  -6.0732  -5.9566  -5.7738  -5.7293  -5.6852  -5.4490  -5.3592
    -5.3159  -5.2420  -5.2010  -5.1817  -5.1662  -5.1221  -5.0004  -4.9188
    -4.8395  -4.7348  -4.4729  -3.7845  -2.4733  -2.1790  -0.5442  -0.1976
     0.5456   0.8406

     the Fermi energy is    -3.7534 ev

!    total energy              =    -329.49245457 Ry
     Harris-Foulkes estimate   =    -329.49245456 Ry
     estimated scf accuracy    <          1.7E-11 Ry

     The total energy is the sum of the following terms:

     one-electron contribution =    -608.14209697 Ry
     hartree contribution      =     325.50524646 Ry
     xc contribution           =     -51.40191000 Ry
     ewald contribution        =       4.55032018 Ry
     smearing contrib. (-TS)   =      -0.00401424 Ry

     convergence has been achieved in  11 iterations

     Forces acting on atoms (Ry/au):

     atom    1 type  1   force =    -0.00174287    0.00031668   -0.00241753
     atom    2 type  1   force =     0.00014594   -0.00032249   -0.00060754
     atom    3 type  1   force =     0.00009513   -0.00056925    0.00176876
     atom    4 type  1   force =     0.00197218   -0.00019216   -0.00062909
     atom    5 type  1   force =    -0.00047038    0.00076721    0.00188540

     Total force =     0.004650     Total SCF correction =     0.000021

     number of scf cycles    =  50
     number of bfgs steps    =  48

     energy   old            =    -329.4924335660 Ry
     energy   new            =    -329.4924545707 Ry

     CASE: energy  _new < energy  _old

     WARNING: info=  6 for Hessian
     new trust radius        =       0.0051270141 bohr
     new conv_thr            =            1.0E-10 Ry

ATOMIC_POSITIONS (bohr)
Au      -1.951002746   2.501424205  -0.720170192
Au      -0.725121258   4.248365916   3.958137254
Au       2.831375666   1.726179888   0.665415656
Au       4.138039098   3.543019936   5.602327105
Au       7.505129240   1.146821055   2.488338178

     Writing output data file pwscf.save
     Check: negative starting charge=   -0.006400
     NEW-OLD atomic charge density approx. for the potential
     Check: negative starting charge=   -0.006400

     negative rho (up, down):  3.664E-07 0.000E+00

     Writing output data file pwscf.save

     General routines

     Parallel routines

   This run was terminated on:   1:10:11   4Aug2017

   JOB DONE.