     Program PWSCF v.6.0 (svn rev. 13079) starts on  3Aug2017 at 14: 3:39

     Current dimensions of program PWSCF are:
     Max number of different atomic species (ntypx) = 10
     Max number of k-points (npk) =  40000
     Max angular momentum in pseudopotentials (lmaxx) =  3
     Message from routine iosys:
     pot_extrapolation='second-order' not available, using 'atomic'
     Message from routine iosys:
     wfc_extrapolation='second-order' not available, using 'atomic'

     Subspace diagonalization in iterative solution of the eigenvalue problem:
     a serial algorithm will be used

     bravais-lattice index     =            1
     lattice parameter (alat)  =      20.0000  a.u.
     unit-cell volume          =    8000.0000 (a.u.)^3
     number of atoms/cell      =            5
     number of atomic types    =            1
     number of electrons       =        55.00
     number of Kohn-Sham states=           34
     kinetic-energy cutoff     =      30.0000  Ry
     charge density cutoff     =     120.0000  Ry
     convergence threshold     =      1.0E-08
     mixing beta               =       0.7000
     number of iterations used =            8  plain     mixing
     Exchange-correlation      = BLYP ( 1  3  1  3 0 0)
     nstep                     =           50

     celldm(1)=  20.000000  celldm(2)=   0.000000  celldm(3)=   0.000000
     celldm(4)=   0.000000  celldm(5)=   0.000000  celldm(6)=   0.000000

     crystal axes: (cart. coord. in units of alat)
               a(1) = (   1.000000   0.000000   0.000000 )
               a(2) = (   0.000000   1.000000   0.000000 )
               a(3) = (   0.000000   0.000000   1.000000 )

     reciprocal axes: (cart. coord. in units 2 pi/alat)
               b(1) = (  1.000000  0.000000  0.000000 )
               b(2) = (  0.000000  1.000000  0.000000 )
               b(3) = (  0.000000  0.000000  1.000000 )

     PseudoPot. # 1 for Au read from file:
     ./Au.blyp-d-hgh.UPF
     MD5 check sum: c10d8bae01f806c36a1643a1c69a8479
     Pseudo is Norm-conserving, Zval = 11.0
     Generated in analytical, separable form
     Using radial grid of 1279 points,  6 beta functions with:
                l(1) =   0
                l(2) =   0
                l(3) =   1
                l(4) =   1
                l(5) =   2
                l(6) =   2

     atomic species   valence    mass     pseudopotential
        Au            11.00    28.08600     Au( 1.00)

     No symmetry found

   Cartesian axes

     site n.     atom                  positions (alat units)
         1           Au  tau(   1) = (  -0.0789952   0.0714487  -0.0273178  )
         2           Au  tau(   2) = (  -0.0466627   0.2017856   0.1915605  )
         3           Au  tau(   3) = (   0.1598568   0.0548678   0.0369881  )
         4           Au  tau(   4) = (   0.1984726   0.2049647   0.2592627  )
         5           Au  tau(   5) = (   0.3846081   0.0644046   0.1542708  )

     number of k points=     1  Marzari-Vanderbilt smearing, width (Ry)=  0.0250
                       cart. coord. in units 2pi/alat
        k(    1) = (   0.0000000   0.0000000   0.0000000), wk =   2.0000000

     Initial potential from superposition of free atoms
     Check: negative starting charge=   -0.006376

     starting charge   54.99940, renormalised to   55.00000

     negative rho (up, down):  6.377E-03 0.000E+00
     Starting wfc are   45 randomized atomic wfcs

     Self-consistent Calculation

     iteration #  1     ecut=    30.00 Ry     beta=0.70
     Davidson diagonalization with overlap
     ethr =  1.00E-02,  avg # of iterations =  3.0

     Threshold (ethr) on eigenvalues was too large:
     Diagonalizing with lowered threshold

     Davidson diagonalization with overlap
     ethr =  4.15E-04,  avg # of iterations =  5.0

     negative rho (up, down):  8.596E-04 0.000E+00

     total energy              =    -329.37203408 Ry
     Harris-Foulkes estimate   =    -329.54464060 Ry
     estimated scf accuracy    <       0.28504194 Ry

[...]

     End of self-consistent calculation

          k = 0.0000 0.0000 0.0000 ( 22119 PWs)   bands (ev):

    -8.4044  -7.6923  -7.6160  -7.1399  -7.0446  -6.7736  -6.6472  -6.4254
    -6.2743  -6.0435  -5.9800  -5.7215  -5.6847  -5.6505  -5.4110  -5.3461
    -5.2636  -5.2343  -5.1968  -5.1623  -5.1500  -5.1214  -4.9468  -4.9138
    -4.8376  -4.5962  -4.4053  -3.8238  -2.5012  -2.0996  -0.5212  -0.2145
     0.5832   0.7973

     the Fermi energy is    -3.8188 ev

!    total energy              =    -329.48757643 Ry
     Harris-Foulkes estimate   =    -329.48757645 Ry
     estimated scf accuracy    <          7.0E-09 Ry

     The total energy is the sum of the following terms:

     one-electron contribution =    -607.03811204 Ry
     hartree contribution      =     325.01761499 Ry
     xc contribution           =     -51.41767922 Ry
     ewald contribution        =       3.94893006 Ry
     smearing contrib. (-TS)   =       0.00166979 Ry

     convergence has been achieved in  12 iterations

     Forces acting on atoms (Ry/au):

     atom    1 type  1   force =    -0.01314380   -0.00029379   -0.00530074
     atom    2 type  1   force =    -0.00225430   -0.00306299   -0.00722102
     atom    3 type  1   force =     0.00715031    0.00687661    0.01625034
     atom    4 type  1   force =     0.00475723   -0.00265266   -0.00083923
     atom    5 type  1   force =     0.00349055   -0.00086717   -0.00288935

     Total force =     0.026109     Total SCF correction =     0.000294

     BFGS Geometry Optimization

     number of scf cycles    =   1
     number of bfgs steps    =   0

     energy   new            =    -329.4875764347 Ry

     new trust radius        =       0.0190391296 bohr
     new conv_thr            =       0.0000000100 Ry

ATOMIC_POSITIONS (bohr)
Au      -1.593047799   1.428680205  -0.551657742
Au      -0.935509297   4.032648007   3.823989980
Au       3.204286312   1.104233613   0.756013345
Au       3.974209231   4.096642342   5.184414766
Au       7.695653553   1.287223834   3.082526650

     Writing output data file pwscf.save
     Check: negative starting charge=   -0.006376
     NEW-OLD atomic charge density approx. for the potential
     Check: negative starting charge=   -0.006385

[...]

     energy   old            =    -329.4875764347 Ry
     energy   new            =    -329.4881825609 Ry

     CASE: energy  _new < energy  _old

[...]

     iteration #  1     ecut=    30.00 Ry     beta=0.70
     Davidson diagonalization with overlap
     c_bands:  1 eigenvalues not converged
     ethr =  1.00E-06,  avg # of iterations = 20.0

[...]

     number of scf cycles    =  19
     number of bfgs steps    =  18

     energy   old            =    -329.4922886141 Ry
     energy   new            =    -329.4923035823 Ry

     CASE: energy  _new < energy  _old

     new trust radius        =       0.0105280921 bohr
     new conv_thr            =            1.0E-10 Ry

ATOMIC_POSITIONS (bohr)
Au      -1.695247556   1.361870694  -0.767184689
Au      -0.758985348   3.971840328   3.589016243
Au       3.033268994   1.117151093   1.015958871
Au       4.103963870   4.177118588   5.418171417
Au       7.662592040   1.321447297   3.039325158

     Writing output data file pwscf.save
     Check: negative starting charge=   -0.006381
     NEW-OLD atomic charge density approx. for the potential
     Check: negative starting charge=   -0.006376

[...]

     Self-consistent Calculation

[...]

     Threshold (ethr) on eigenvalues was too large:
     Diagonalizing with lowered threshold

     Davidson diagonalization with overlap
     ethr =  3.49E-08,  avg # of iterations =  1.0

     negative rho (up, down):  1.042E-08 0.000E+00

[...]

     total energy              =    -329.49231453 Ry
     Harris-Foulkes estimate   =    -329.49231456 Ry
     estimated scf accuracy    <          2.6E-10 Ry

     iteration #  9     ecut=    30.00 Ry     beta=0.70
     Davidson diagonalization with overlap
     ethr =  4.65E-13,  avg # of iterations =  3.0

     End of self-consistent calculation

          k = 0.0000 0.0000 0.0000 ( 22119 PWs)   bands (ev):

    -8.4988  -7.7793  -7.6362  -7.2283  -6.8452  -6.8066  -6.6275  -6.4797
    -6.2968  -6.0733  -5.9613  -5.7664  -5.7299  -5.6794  -5.4627  -5.3619
    -5.3077  -5.2478  -5.1943  -5.1826  -5.1706  -5.1227  -5.0018  -4.9256
    -4.8403  -4.7271  -4.4800  -3.7703  -2.4736  -2.2039  -0.5369  -0.1538
     0.4873   0.8307

     the Fermi energy is    -3.7366 ev

!    total energy              =    -329.49231454 Ry
     Harris-Foulkes estimate   =    -329.49231453 Ry
     estimated scf accuracy    <          2.9E-11 Ry

     The total energy is the sum of the following terms:

     one-electron contribution =    -607.04069624 Ry
     hartree contribution      =     324.95573198 Ry
     xc contribution           =     -51.39795763 Ry
     ewald contribution        =       3.99522053 Ry
     smearing contrib. (-TS)   =      -0.00461318 Ry

     convergence has been achieved in   9 iterations

     Forces acting on atoms (Ry/au):

     atom    1 type  1   force =     0.00011449   -0.00053993   -0.00046868
     atom    2 type  1   force =     0.00056548    0.00003008    0.00006109
     atom    3 type  1   force =     0.00054676    0.00069937    0.00016363
     atom    4 type  1   force =    -0.00086968   -0.00054904   -0.00001323
     atom    5 type  1   force =    -0.00035704    0.00035952    0.00025720

     Total force =     0.001745     Total SCF correction =     0.000026

     bfgs converged in  20 scf cycles and  19 bfgs steps
     (criteria: energy <  1.0E-04, force <  1.0E-03)

     End of BFGS Geometry Optimization

     Final energy   =    -329.4923145438 Ry
Begin final coordinates

ATOMIC_POSITIONS (bohr)
Au      -1.695247556   1.361870694  -0.767184689
Au      -0.758985348   3.971840328   3.589016243
Au       3.033268994   1.117151093   1.015958871
Au       4.103963870   4.177118588   5.418171417
Au       7.662592040   1.321447297   3.039325158
End final coordinates

     Writing output data file pwscf.save

     General routines

     Parallel routines

   This run was terminated on:  14: 4:42   3Aug2017

   JOB DONE.