     Program PWSCF v.6.0 (svn rev. 13079) starts on  4Aug2017 at  1: 3: 8

     Current dimensions of program PWSCF are:
     Max number of different atomic species (ntypx) = 10
     Max number of k-points (npk) =  40000
     Max angular momentum in pseudopotentials (lmaxx) =  3
     Message from routine iosys:
     pot_extrapolation='second-order' not available, using 'atomic'
     Message from routine iosys:
     wfc_extrapolation='second-order' not available, using 'atomic'

     Subspace diagonalization in iterative solution of the eigenvalue problem:
     a serial algorithm will be used

     bravais-lattice index     =            1
     lattice parameter (alat)  =      20.0000  a.u.
     unit-cell volume          =    8000.0000 (a.u.)^3
     number of atoms/cell      =            5
     number of atomic types    =            1
     number of electrons       =        55.00
     number of Kohn-Sham states=           34
     kinetic-energy cutoff     =      30.0000  Ry
     charge density cutoff     =     120.0000  Ry
     convergence threshold     =      1.0E-08
     mixing beta               =       0.7000
     number of iterations used =            8  plain     mixing
     Exchange-correlation      = BLYP ( 1  3  1  3 0 0)
     nstep                     =           50

     celldm(1)=  20.000000  celldm(2)=   0.000000  celldm(3)=   0.000000
     celldm(4)=   0.000000  celldm(5)=   0.000000  celldm(6)=   0.000000

     crystal axes: (cart. coord. in units of alat)
               a(1) = (   1.000000   0.000000   0.000000 )
               a(2) = (   0.000000   1.000000   0.000000 )
               a(3) = (   0.000000   0.000000   1.000000 )

     reciprocal axes: (cart. coord. in units 2 pi/alat)
               b(1) = (  1.000000  0.000000  0.000000 )
               b(2) = (  0.000000  1.000000  0.000000 )
               b(3) = (  0.000000  0.000000  1.000000 )

     PseudoPot. # 1 for Au read from file:
     ./Au.blyp-d-hgh.UPF
     MD5 check sum: c10d8bae01f806c36a1643a1c69a8479
     Pseudo is Norm-conserving, Zval = 11.0
     Generated in analytical, separable form
     Using radial grid of 1279 points,  6 beta functions with:
                l(1) =   0
                l(2) =   0
                l(3) =   1
                l(4) =   1
                l(5) =   2
                l(6) =   2

     atomic species   valence    mass     pseudopotential
        Au            11.00    28.08600     Au( 1.00)

     No symmetry found

   Cartesian axes

     site n.     atom                  positions (alat units)
         1           Au  tau(   1) = (  -0.0825188   0.0435354  -0.0192673  )
         2           Au  tau(   2) = (  -0.0012992   0.1366845   0.2066214  )
         3           Au  tau(   3) = (   0.1477653   0.1312742  -0.0038560  )
         4           Au  tau(   4) = (   0.2289094   0.2414709   0.2781161  )
         5           Au  tau(   5) = (   0.3194611   0.0406764   0.1474825  )

     number of k points=     1  Marzari-Vanderbilt smearing, width (Ry)=  0.0250
                       cart. coord. in units 2pi/alat
        k(    1) = (   0.0000000   0.0000000   0.0000000), wk =   2.0000000

     Initial potential from superposition of free atoms
     Check: negative starting charge=   -0.006137

     starting charge   54.99940, renormalised to   55.00000

     negative rho (up, down):  6.137E-03 0.000E+00
     Starting wfc are   45 randomized atomic wfcs

     Self-consistent Calculation

     iteration #  1     ecut=    30.00 Ry     beta=0.70
     Davidson diagonalization with overlap
     ethr =  1.00E-02,  avg # of iterations =  3.0

     Threshold (ethr) on eigenvalues was too large:
     Diagonalizing with lowered threshold

     Davidson diagonalization with overlap
     ethr =  3.46E-04,  avg # of iterations =  7.0

     negative rho (up, down):  8.098E-04 0.000E+00

     total energy              =    -329.35724141 Ry
     Harris-Foulkes estimate   =    -329.50595677 Ry
     estimated scf accuracy    <       0.25125617 Ry

[...]

     End of self-consistent calculation

          k = 0.0000 0.0000 0.0000 ( 22119 PWs)   bands (ev):

    -8.3337  -7.8667  -7.5467  -7.2194  -7.0540  -6.9010  -6.7694  -6.4725
    -6.4408  -6.0159  -5.9453  -5.7706  -5.7346  -5.5711  -5.5014  -5.4106
    -5.2704  -5.2128  -5.1408  -5.1070  -5.0831  -5.0378  -4.9315  -4.9170
    -4.7144  -4.4289  -4.3606  -3.5829  -2.4708  -2.3660  -0.3268  -0.0816
     0.3092   0.5719

     the Fermi energy is    -3.5458 ev

!    total energy              =    -329.45337730 Ry
     Harris-Foulkes estimate   =    -329.45337728 Ry
     estimated scf accuracy    <          2.7E-09 Ry

     The total energy is the sum of the following terms:

     one-electron contribution =    -617.56279753 Ry
     hartree contribution      =     330.29097411 Ry
     xc contribution           =     -51.42294594 Ry
     ewald contribution        =       9.24669287 Ry
     smearing contrib. (-TS)   =      -0.00530081 Ry

     convergence has been achieved in  12 iterations

     Forces acting on atoms (Ry/au):

     atom    1 type  1   force =    -0.02779359   -0.00490575   -0.00359972
     atom    2 type  1   force =    -0.00022210    0.00889366    0.00917950
     atom    3 type  1   force =     0.01089720    0.00575900   -0.01902607
     atom    4 type  1   force =    -0.01106969   -0.00861968    0.00033192
     atom    5 type  1   force =     0.02818818   -0.00112724    0.01311437

     Total force =     0.051494     Total SCF correction =     0.000246

     BFGS Geometry Optimization

     number of scf cycles    =   1
     number of bfgs steps    =   0

     energy   new            =    -329.4533772978 Ry

     new trust radius        =       0.0311099758 bohr
     new conv_thr            =       0.0000000100 Ry

ATOMIC_POSITIONS (bohr)
Au      -1.678169586   0.865803255  -0.388946716
Au      -0.026205098   2.742584659   4.141607498
Au       2.966204197   2.631244004  -0.096146069
Au       4.567118310   4.820797323   5.562652919
Au       6.417410176   0.812401760   2.962765368

     Writing output data file pwscf.save
     Check: negative starting charge=   -0.006137
     NEW-OLD atomic charge density approx. for the potential
     Check: negative starting charge=   -0.006122

[...]

     energy   old            =    -329.4533772978 Ry
     energy   new            =    -329.4556814629 Ry

     CASE: energy  _new < energy  _old

[...]

     iteration #  1     ecut=    30.00 Ry     beta=0.70
     Davidson diagonalization with overlap
     c_bands:  1 eigenvalues not converged
     ethr =  1.00E-06,  avg # of iterations = 20.0

[...]

     CASE: energy  _new > energy  _old

[...]

     iteration #  1     ecut=    30.00 Ry     beta=0.70
     Davidson diagonalization with overlap
     c_bands:  1 eigenvalues not converged
     ethr =  1.00E-06,  avg # of iterations = 20.0

[...]

     WARNING: bfgs curvature condition failed, Theta= 0.945
     new trust radius        =       0.0559531115 bohr
     new conv_thr            =       0.0000000001 Ry

[...]

     WARNING: bfgs curvature condition failed, Theta= 0.279
     new trust radius        =       0.1258945009 bohr
     new conv_thr            =       0.0000000004 Ry

[...]

     WARNING: bfgs curvature condition failed, Theta= 0.683
     uphill step: resetting bfgs history

[...]

     Self-consistent Calculation

[...]

     Threshold (ethr) on eigenvalues was too large:
     Diagonalizing with lowered threshold

     Davidson diagonalization with overlap
     ethr =  6.90E-08,  avg # of iterations =  1.0

[...]

     total energy              =    -329.49147496 Ry
     Harris-Foulkes estimate   =    -329.49147496 Ry
     estimated scf accuracy    <          1.3E-10 Ry

     iteration # 10     ecut=    30.00 Ry     beta=0.70
     Davidson diagonalization with overlap
     ethr =  2.36E-13,  avg # of iterations =  2.0

     End of self-consistent calculation

          k = 0.0000 0.0000 0.0000 ( 22119 PWs)   bands (ev):

    -8.5146  -7.7937  -7.6511  -7.2416  -6.8504  -6.8205  -6.6284  -6.4852
    -6.3098  -6.0770  -5.9639  -5.7717  -5.7329  -5.6862  -5.4660  -5.3651
    -5.3131  -5.2502  -5.1981  -5.1867  -5.1729  -5.1261  -5.0030  -4.9206
    -4.8357  -4.7391  -4.4760  -3.7783  -2.5088  -2.1926  -0.5646  -0.1775
     0.5105   0.8971

     the Fermi energy is    -3.7459 ev

!    total energy              =    -329.49147493 Ry
     Harris-Foulkes estimate   =    -329.49147496 Ry
     estimated scf accuracy    <          3.2E-11 Ry

     The total energy is the sum of the following terms:

     one-electron contribution =    -609.46584260 Ry
     hartree contribution      =     326.16060469 Ry
     xc contribution           =     -51.40278593 Ry
     ewald contribution        =       5.22085849 Ry
     smearing contrib. (-TS)   =      -0.00430958 Ry

     convergence has been achieved in  10 iterations

     Forces acting on atoms (Ry/au):

     atom    1 type  1   force =     0.00015492    0.00138102    0.00128059
     atom    2 type  1   force =     0.00098685   -0.00042320   -0.00099150
     atom    3 type  1   force =    -0.00126303   -0.00074608    0.00009643
     atom    4 type  1   force =    -0.00136612    0.00103858    0.00039621
     atom    5 type  1   force =     0.00148738   -0.00125032   -0.00078173

     Total force =     0.003919     Total SCF correction =     0.000017

     number of scf cycles    =  50
     number of bfgs steps    =  48

     energy   old            =    -329.4914487288 Ry
     energy   new            =    -329.4914749305 Ry

     CASE: energy  _new < energy  _old

     new trust radius        =       0.0121371662 bohr
     new conv_thr            =            1.0E-10 Ry

ATOMIC_POSITIONS (bohr)
Au      -1.842795383   1.387264723  -0.609914619
Au      -0.790820847   3.636215812   3.926432458
Au       3.025567594   1.440933707   0.757585447
Au       4.114751253   3.675706045   5.587937925
Au       7.739655383   1.732710712   2.519891790

     Writing output data file pwscf.save
     Check: negative starting charge=   -0.006486
     NEW-OLD atomic charge density approx. for the potential
     Check: negative starting charge=   -0.006487

     negative rho (up, down):  1.494E-05 0.000E+00

     Writing output data file pwscf.save

     General routines

     Parallel routines

   This run was terminated on:   1: 5:27   4Aug2017

   JOB DONE.