     Program PWSCF v.6.0 (svn rev. 13079) starts on  3Aug2017 at 23:11:53

     Current dimensions of program PWSCF are:
     Max number of different atomic species (ntypx) = 10
     Max number of k-points (npk) =  40000
     Max angular momentum in pseudopotentials (lmaxx) =  3
     Message from routine iosys:
     pot_extrapolation='second-order' not available, using 'atomic'
     Message from routine iosys:
     wfc_extrapolation='second-order' not available, using 'atomic'

     Subspace diagonalization in iterative solution of the eigenvalue problem:
     a serial algorithm will be used

     bravais-lattice index     =            1
     lattice parameter (alat)  =      20.0000  a.u.
     unit-cell volume          =    8000.0000 (a.u.)^3
     number of atoms/cell      =            5
     number of atomic types    =            1
     number of electrons       =        55.00
     number of Kohn-Sham states=           34
     kinetic-energy cutoff     =      30.0000  Ry
     charge density cutoff     =     120.0000  Ry
     convergence threshold     =      1.0E-08
     mixing beta               =       0.7000
     number of iterations used =            8  plain     mixing
     Exchange-correlation      = BLYP ( 1  3  1  3 0 0)
     nstep                     =           50

     celldm(1)=  20.000000  celldm(2)=   0.000000  celldm(3)=   0.000000
     celldm(4)=   0.000000  celldm(5)=   0.000000  celldm(6)=   0.000000

     crystal axes: (cart. coord. in units of alat)
               a(1) = (   1.000000   0.000000   0.000000 )
               a(2) = (   0.000000   1.000000   0.000000 )
               a(3) = (   0.000000   0.000000   1.000000 )

     reciprocal axes: (cart. coord. in units 2 pi/alat)
               b(1) = (  1.000000  0.000000  0.000000 )
               b(2) = (  0.000000  1.000000  0.000000 )
               b(3) = (  0.000000  0.000000  1.000000 )

     PseudoPot. # 1 for Au read from file:
     ./Au.blyp-d-hgh.UPF
     MD5 check sum: c10d8bae01f806c36a1643a1c69a8479
     Pseudo is Norm-conserving, Zval = 11.0
     Generated in analytical, separable form
     Using radial grid of 1279 points,  6 beta functions with:
                l(1) =   0
                l(2) =   0
                l(3) =   1
                l(4) =   1
                l(5) =   2
                l(6) =   2

     atomic species   valence    mass     pseudopotential
        Au            11.00    28.08600     Au( 1.00)

     No symmetry found

   Cartesian axes

     site n.     atom                  positions (alat units)
         1           Au  tau(   1) = (  -0.1033446   0.0789451  -0.0169043  )
         2           Au  tau(   2) = (   0.0090349   0.1131206   0.2087027  )
         3           Au  tau(   3) = (   0.1481792   0.0706278   0.0028951  )
         4           Au  tau(   4) = (   0.2323598   0.2002963   0.2844147  )
         5           Au  tau(   5) = (   0.3690579   0.0622960   0.1105532  )

     number of k points=     1  Marzari-Vanderbilt smearing, width (Ry)=  0.0250
                       cart. coord. in units 2pi/alat
        k(    1) = (   0.0000000   0.0000000   0.0000000), wk =   2.0000000

     Initial potential from superposition of free atoms
     Check: negative starting charge=   -0.006483

     starting charge   54.99940, renormalised to   55.00000

     negative rho (up, down):  6.483E-03 0.000E+00
     Starting wfc are   45 randomized atomic wfcs

     Self-consistent Calculation

     iteration #  1     ecut=    30.00 Ry     beta=0.70
     Davidson diagonalization with overlap
     ethr =  1.00E-02,  avg # of iterations =  3.0

     Threshold (ethr) on eigenvalues was too large:
     Diagonalizing with lowered threshold

     Davidson diagonalization with overlap
     ethr =  4.14E-04,  avg # of iterations =  7.0

     negative rho (up, down):  8.683E-04 0.000E+00

     total energy              =    -329.36226164 Ry
     Harris-Foulkes estimate   =    -329.53505819 Ry
     estimated scf accuracy    <       0.28801780 Ry

[...]

     End of self-consistent calculation

          k = 0.0000 0.0000 0.0000 ( 22119 PWs)   bands (ev):

    -8.4693  -7.7733  -7.6765  -7.4023  -7.0220  -6.7973  -6.6392  -6.5317
    -6.1906  -6.0658  -5.9450  -5.7306  -5.6805  -5.5830  -5.5544  -5.4564
    -5.2383  -5.1886  -5.1789  -5.1244  -5.1107  -5.0098  -4.9248  -4.8850
    -4.8452  -4.5277  -4.3070  -3.7571  -2.4533  -2.1333  -0.4596  -0.2364
     0.4571   0.7800

     the Fermi energy is    -3.7561 ev

!    total energy              =    -329.47643481 Ry
     Harris-Foulkes estimate   =    -329.47643481 Ry
     estimated scf accuracy    <          2.5E-09 Ry

     The total energy is the sum of the following terms:

     one-electron contribution =    -614.01246534 Ry
     hartree contribution      =     328.51825313 Ry
     xc contribution           =     -51.45223168 Ry
     ewald contribution        =       7.46772870 Ry
     smearing contrib. (-TS)   =       0.00228038 Ry

     convergence has been achieved in  12 iterations

     Forces acting on atoms (Ry/au):

     atom    1 type  1   force =    -0.01062455   -0.00156960   -0.00731793
     atom    2 type  1   force =    -0.01903241    0.00526574    0.01517379
     atom    3 type  1   force =    -0.00305843   -0.00364517   -0.02049173
     atom    4 type  1   force =     0.01423632   -0.00493271   -0.00010845
     atom    5 type  1   force =     0.01847906    0.00488175    0.01274433

     Total force =     0.044569     Total SCF correction =     0.000225

     BFGS Geometry Optimization

     number of scf cycles    =   1
     number of bfgs steps    =   0

     energy   new            =    -329.4764348089 Ry

     new trust radius        =       0.0249039034 bohr
     new conv_thr            =       0.0000000100 Ry

ATOMIC_POSITIONS (bohr)
Au      -2.077515545   1.577331402  -0.345402933
Au       0.161665594   2.267676736   4.189228791
Au       2.960525568   1.408910828   0.037411269
Au       4.661432325   4.000994289   5.688186547
Au       7.399637059   1.250801746   2.223808326

     Writing output data file pwscf.save
     Check: negative starting charge=   -0.006483
     NEW-OLD atomic charge density approx. for the potential
     Check: negative starting charge=   -0.006470

[...]

     energy   old            =    -329.4764348089 Ry
     energy   new            =    -329.4781651408 Ry

     CASE: energy  _new < energy  _old

[...]

     WARNING: bfgs curvature condition failed, Theta= 0.762
     new trust radius        =       0.1364959576 bohr
     new conv_thr            =       0.0000000008 Ry

[...]

     WARNING: bfgs curvature condition failed, Theta= 0.997
     new trust radius        =       0.0082096698 bohr
     new conv_thr            =            1.0E-10 Ry

[...]

     Self-consistent Calculation

[...]

     Threshold (ethr) on eigenvalues was too large:
     Diagonalizing with lowered threshold

     Davidson diagonalization with overlap
     ethr =  8.92E-08,  avg # of iterations =  1.0

[...]

     total energy              =    -329.49099876 Ry
     Harris-Foulkes estimate   =    -329.49099876 Ry
     estimated scf accuracy    <          5.0E-10 Ry

     iteration # 10     ecut=    30.00 Ry     beta=0.70
     Davidson diagonalization with overlap
     ethr =  9.15E-13,  avg # of iterations =  2.0

     End of self-consistent calculation

          k = 0.0000 0.0000 0.0000 ( 22119 PWs)   bands (ev):

    -8.5040  -7.7752  -7.6369  -7.2219  -6.8556  -6.8151  -6.6078  -6.4706
    -6.2977  -6.0723  -5.9599  -5.7701  -5.7306  -5.6837  -5.4513  -5.3684
    -5.3151  -5.2461  -5.2017  -5.1868  -5.1693  -5.1301  -4.9947  -4.9243
    -4.8501  -4.7301  -4.4795  -3.7919  -2.5189  -2.1962  -0.5675  -0.2076
     0.5348   0.9184

     the Fermi energy is    -3.7612 ev

!    total energy              =    -329.49099876 Ry
     Harris-Foulkes estimate   =    -329.49099876 Ry
     estimated scf accuracy    <          3.4E-11 Ry

     The total energy is the sum of the following terms:

     one-electron contribution =    -609.21382943 Ry
     hartree contribution      =     326.04242361 Ry
     xc contribution           =     -51.40142246 Ry
     ewald contribution        =       5.08576113 Ry
     smearing contrib. (-TS)   =      -0.00393162 Ry

     convergence has been achieved in  10 iterations

     Forces acting on atoms (Ry/au):

     atom    1 type  1   force =     0.00020225   -0.00073071    0.00034068
     atom    2 type  1   force =     0.00032779   -0.00041677   -0.00222665
     atom    3 type  1   force =     0.00138651   -0.00016030    0.00151404
     atom    4 type  1   force =    -0.00084357    0.00023280   -0.00088752
     atom    5 type  1   force =    -0.00107299    0.00107497    0.00125946

     Total force =     0.003952     Total SCF correction =     0.000027

     number of scf cycles    =  50
     number of bfgs steps    =  49

     energy   old            =    -329.4909710964 Ry
     energy   new            =    -329.4909987643 Ry

     CASE: energy  _new < energy  _old

     new trust radius        =       0.0243627688 bohr
     new conv_thr            =            1.0E-10 Ry

ATOMIC_POSITIONS (bohr)
Au      -1.827294741   1.433626845  -0.566520820
Au      -0.524678874   3.147417176   4.139390432
Au       3.090179332   1.329419233   0.566462583
Au       4.484841275   3.256974961   5.507235524
Au       7.882698008   1.338276785   2.146664281

     Writing output data file pwscf.save
     Check: negative starting charge=   -0.006518
     NEW-OLD atomic charge density approx. for the potential
     Check: negative starting charge=   -0.006514

     negative rho (up, down):  1.191E-04 0.000E+00

     Writing output data file pwscf.save

     General routines

     Parallel routines

   This run was terminated on:  23:14: 3   3Aug2017

   JOB DONE.