     Program PWSCF v.6.0 (svn rev. 13079) starts on  3Aug2017 at 23:39:40

     Current dimensions of program PWSCF are:
     Max number of different atomic species (ntypx) = 10
     Max number of k-points (npk) =  40000
     Max angular momentum in pseudopotentials (lmaxx) =  3
     Message from routine iosys:
     pot_extrapolation='second-order' not available, using 'atomic'
     Message from routine iosys:
     wfc_extrapolation='second-order' not available, using 'atomic'

     Subspace diagonalization in iterative solution of the eigenvalue problem:
     a serial algorithm will be used

     bravais-lattice index     =            1
     lattice parameter (alat)  =      20.0000  a.u.
     unit-cell volume          =    8000.0000 (a.u.)^3
     number of atoms/cell      =            5
     number of atomic types    =            1
     number of electrons       =        55.00
     number of Kohn-Sham states=           34
     kinetic-energy cutoff     =      30.0000  Ry
     charge density cutoff     =     120.0000  Ry
     convergence threshold     =      1.0E-08
     mixing beta               =       0.7000
     number of iterations used =            8  plain     mixing
     Exchange-correlation      = BLYP ( 1  3  1  3 0 0)
     nstep                     =           50

     celldm(1)=  20.000000  celldm(2)=   0.000000  celldm(3)=   0.000000
     celldm(4)=   0.000000  celldm(5)=   0.000000  celldm(6)=   0.000000

     crystal axes: (cart. coord. in units of alat)
               a(1) = (   1.000000   0.000000   0.000000 )
               a(2) = (   0.000000   1.000000   0.000000 )
               a(3) = (   0.000000   0.000000   1.000000 )

     reciprocal axes: (cart. coord. in units 2 pi/alat)
               b(1) = (  1.000000  0.000000  0.000000 )
               b(2) = (  0.000000  1.000000  0.000000 )
               b(3) = (  0.000000  0.000000  1.000000 )

     PseudoPot. # 1 for Au read from file:
     ./Au.blyp-d-hgh.UPF
     MD5 check sum: c10d8bae01f806c36a1643a1c69a8479
     Pseudo is Norm-conserving, Zval = 11.0
     Generated in analytical, separable form
     Using radial grid of 1279 points,  6 beta functions with:
                l(1) =   0
                l(2) =   0
                l(3) =   1
                l(4) =   1
                l(5) =   2
                l(6) =   2

     atomic species   valence    mass     pseudopotential
        Au            11.00    28.08600     Au( 1.00)

     No symmetry found

   Cartesian axes

     site n.     atom                  positions (alat units)
         1           Au  tau(   1) = (  -0.1046439   0.0860443  -0.0245336  )
         2           Au  tau(   2) = (   0.0122677   0.1296568   0.2033235  )
         3           Au  tau(   3) = (   0.1431193   0.0566723   0.0024958  )
         4           Au  tau(   4) = (   0.2353902   0.2013262   0.2980725  )
         5           Au  tau(   5) = (   0.3553828   0.0432984   0.1235317  )

     number of k points=     1  Marzari-Vanderbilt smearing, width (Ry)=  0.0250
                       cart. coord. in units 2pi/alat
        k(    1) = (   0.0000000   0.0000000   0.0000000), wk =   2.0000000

     Initial potential from superposition of free atoms
     Check: negative starting charge=   -0.006299

     starting charge   54.99940, renormalised to   55.00000

     negative rho (up, down):  6.299E-03 0.000E+00
     Starting wfc are   45 randomized atomic wfcs

     Self-consistent Calculation

     iteration #  1     ecut=    30.00 Ry     beta=0.70
     Davidson diagonalization with overlap
     ethr =  1.00E-02,  avg # of iterations =  3.0

     Threshold (ethr) on eigenvalues was too large:
     Diagonalizing with lowered threshold

     Davidson diagonalization with overlap
     ethr =  4.42E-04,  avg # of iterations =  7.0

     negative rho (up, down):  8.382E-04 0.000E+00

     total energy              =    -329.35626831 Ry
     Harris-Foulkes estimate   =    -329.53582297 Ry
     estimated scf accuracy    <       0.29826649 Ry

[...]

     End of self-consistent calculation

          k = 0.0000 0.0000 0.0000 ( 22119 PWs)   bands (ev):

    -8.4369  -7.7554  -7.6226  -7.3998  -6.8678  -6.7922  -6.5399  -6.4913
    -6.2039  -6.0112  -5.9616  -5.7549  -5.6947  -5.5582  -5.5334  -5.4487
    -5.2574  -5.2217  -5.1782  -5.1012  -5.0816  -4.9620  -4.9053  -4.9036
    -4.8101  -4.6084  -4.2776  -3.7942  -2.4665  -2.0903  -0.4568  -0.2524
     0.4007   0.7657

     the Fermi energy is    -3.7949 ev

!    total energy              =    -329.47581272 Ry
     Harris-Foulkes estimate   =    -329.47581271 Ry
     estimated scf accuracy    <          3.8E-09 Ry

     The total energy is the sum of the following terms:

     one-electron contribution =    -608.11370670 Ry
     hartree contribution      =     325.59532420 Ry
     xc contribution           =     -51.44181951 Ry
     ewald contribution        =       4.48197715 Ry
     smearing contrib. (-TS)   =       0.00241214 Ry

     convergence has been achieved in  12 iterations

     Forces acting on atoms (Ry/au):

     atom    1 type  1   force =    -0.01022251   -0.00021866   -0.00050990
     atom    2 type  1   force =    -0.01684032    0.00802064    0.00882007
     atom    3 type  1   force =    -0.00509131   -0.00546292   -0.02543825
     atom    4 type  1   force =     0.01013329   -0.00844173   -0.00372570
     atom    5 type  1   force =     0.02202085    0.00610267    0.02085378

     Total force =     0.048767     Total SCF correction =     0.000293

     BFGS Geometry Optimization

     number of scf cycles    =   1
     number of bfgs steps    =   0

     energy   new            =    -329.4758127170 Ry

     new trust radius        =       0.0309360726 bohr
     new conv_thr            =       0.0000000100 Ry

ATOMIC_POSITIONS (bohr)
Au      -2.103099506   1.720667336  -0.491180899
Au       0.228513678   2.601157644   4.075290067
Au       2.857293689   1.127983082   0.024477746
Au       4.717937291   4.018082266   5.957725303
Au       7.129677848   0.872070672   2.491487782

     Writing output data file pwscf.save
     Check: negative starting charge=   -0.006299
     NEW-OLD atomic charge density approx. for the potential
     Check: negative starting charge=   -0.006289

[...]

     energy   old            =    -329.4758127170 Ry
     energy   new            =    -329.4778701897 Ry

     CASE: energy  _new < energy  _old

[...]

     WARNING: bfgs curvature condition failed, Theta= 0.959
     new trust radius        =       0.0333283299 bohr
     new conv_thr            =       0.0000000002 Ry

[...]

     iteration #  1     ecut=    30.00 Ry     beta=0.70
     Davidson diagonalization with overlap
     c_bands:  1 eigenvalues not converged
     ethr =  1.00E-06,  avg # of iterations = 20.0

[...]

     WARNING: info= 14 for Hessian
     new trust radius        =       0.0298140026 bohr
     new conv_thr            =       0.0000000005 Ry

[...]

     WARNING: info= 14 for Hessian
     new trust radius        =       0.0104061699 bohr
     new conv_thr            =            1.0E-10 Ry

[...]

     WARNING: info= 15 for Hessian
     uphill step: resetting bfgs history

[...]

     WARNING: bfgs curvature condition failed, Theta= 1.000
     new trust radius        =       0.0137596639 bohr
     new conv_thr            =       0.0000000003 Ry

[...]

     number of scf cycles    =  40
     number of bfgs steps    =  39

     energy   old            =    -329.4920752273 Ry
     energy   new            =    -329.4921673642 Ry

     CASE: energy  _new < energy  _old

     new trust radius        =       0.0110079303 bohr
     new conv_thr            =            1.0E-10 Ry

ATOMIC_POSITIONS (bohr)
Au      -1.835735785   1.633611353  -0.634947911
Au      -0.493412900   3.672499727   3.899551862
Au       3.015786997   1.093565830   0.730458187
Au       4.405386087   3.204118246   5.556367709
Au       7.738298601   0.736165843   2.506370153

     Writing output data file pwscf.save
     Check: negative starting charge=   -0.006441
     NEW-OLD atomic charge density approx. for the potential
     Check: negative starting charge=   -0.006438

     negative rho (up, down):  8.188E-06 0.000E+00

     Self-consistent Calculation

[...]

     Threshold (ethr) on eigenvalues was too large:
     Diagonalizing with lowered threshold

     Davidson diagonalization with overlap
     ethr =  3.20E-08,  avg # of iterations =  2.0

[...]

     total energy              =    -329.49219261 Ry
     Harris-Foulkes estimate   =    -329.49219262 Ry
     estimated scf accuracy    <          1.6E-10 Ry

     iteration # 10     ecut=    30.00 Ry     beta=0.70
     Davidson diagonalization with overlap
     ethr =  2.94E-13,  avg # of iterations =  2.0

     End of self-consistent calculation

          k = 0.0000 0.0000 0.0000 ( 22119 PWs)   bands (ev):

    -8.5076  -7.7935  -7.6550  -7.2482  -6.8420  -6.8137  -6.6299  -6.4908
    -6.3111  -6.0730  -5.9586  -5.7666  -5.7270  -5.6830  -5.4732  -5.3567
    -5.3113  -5.2514  -5.1970  -5.1820  -5.1734  -5.1199  -5.0115  -4.9207
    -4.8335  -4.7359  -4.4828  -3.7744  -2.4967  -2.1814  -0.5492  -0.1805
     0.5309   0.8304

     the Fermi energy is    -3.7408 ev

!    total energy              =    -329.49219262 Ry
     Harris-Foulkes estimate   =    -329.49219261 Ry
     estimated scf accuracy    <          7.9E-12 Ry

     The total energy is the sum of the following terms:

     one-electron contribution =    -608.42758846 Ry
     hartree contribution      =     325.64246492 Ry
     xc contribution           =     -51.40067282 Ry
     ewald contribution        =       4.69818704 Ry
     smearing contrib. (-TS)   =      -0.00458331 Ry

     convergence has been achieved in  10 iterations

     Forces acting on atoms (Ry/au):

     atom    1 type  1   force =     0.00038254    0.00049753   -0.00052529
     atom    2 type  1   force =    -0.00025285    0.00025043    0.00079048
     atom    3 type  1   force =     0.00070509   -0.00033986   -0.00000763
     atom    4 type  1   force =    -0.00018810    0.00025784    0.00038836
     atom    5 type  1   force =    -0.00064668   -0.00066594   -0.00064592

     Total force =     0.001888     Total SCF correction =     0.000012

     bfgs converged in  41 scf cycles and  40 bfgs steps
     (criteria: energy <  1.0E-04, force <  1.0E-03)

     End of BFGS Geometry Optimization

     Final energy   =    -329.4921926213 Ry
Begin final coordinates

ATOMIC_POSITIONS (bohr)
Au      -1.835735785   1.633611353  -0.634947911
Au      -0.493412900   3.672499727   3.899551862
Au       3.015786997   1.093565830   0.730458187
Au       4.405386087   3.204118246   5.556367709
Au       7.738298601   0.736165843   2.506370153
End final coordinates

     Writing output data file pwscf.save

     General routines

     Parallel routines

   This run was terminated on:  23:41:40   3Aug2017

   JOB DONE.