     Program PWSCF v.6.0 (svn rev. 13079) starts on  4Aug2017 at  3:24:27

     Current dimensions of program PWSCF are:
     Max number of different atomic species (ntypx) = 10
     Max number of k-points (npk) =  40000
     Max angular momentum in pseudopotentials (lmaxx) =  3
     Message from routine iosys:
     pot_extrapolation='second-order' not available, using 'atomic'
     Message from routine iosys:
     wfc_extrapolation='second-order' not available, using 'atomic'

     Subspace diagonalization in iterative solution of the eigenvalue problem:
     a serial algorithm will be used

     bravais-lattice index     =            1
     lattice parameter (alat)  =      20.0000  a.u.
     unit-cell volume          =    8000.0000 (a.u.)^3
     number of atoms/cell      =            5
     number of atomic types    =            1
     number of electrons       =        55.00
     number of Kohn-Sham states=           34
     kinetic-energy cutoff     =      30.0000  Ry
     charge density cutoff     =     120.0000  Ry
     convergence threshold     =      1.0E-08
     mixing beta               =       0.7000
     number of iterations used =            8  plain     mixing
     Exchange-correlation      = BLYP ( 1  3  1  3 0 0)
     nstep                     =           50

     celldm(1)=  20.000000  celldm(2)=   0.000000  celldm(3)=   0.000000
     celldm(4)=   0.000000  celldm(5)=   0.000000  celldm(6)=   0.000000

     crystal axes: (cart. coord. in units of alat)
               a(1) = (   1.000000   0.000000   0.000000 )
               a(2) = (   0.000000   1.000000   0.000000 )
               a(3) = (   0.000000   0.000000   1.000000 )

     reciprocal axes: (cart. coord. in units 2 pi/alat)
               b(1) = (  1.000000  0.000000  0.000000 )
               b(2) = (  0.000000  1.000000  0.000000 )
               b(3) = (  0.000000  0.000000  1.000000 )

     PseudoPot. # 1 for Au read from file:
     ./Au.blyp-d-hgh.UPF
     MD5 check sum: c10d8bae01f806c36a1643a1c69a8479
     Pseudo is Norm-conserving, Zval = 11.0
     Generated in analytical, separable form
     Using radial grid of 1279 points,  6 beta functions with:
                l(1) =   0
                l(2) =   0
                l(3) =   1
                l(4) =   1
                l(5) =   2
                l(6) =   2

     atomic species   valence    mass     pseudopotential
        Au            11.00    28.08600     Au( 1.00)

     No symmetry found

   Cartesian axes

     site n.     atom                  positions (alat units)
         1           Au  tau(   1) = (  -0.0859475   0.0342679  -0.0120622  )
         2           Au  tau(   2) = (   0.0020761   0.1386973   0.2026684  )
         3           Au  tau(   3) = (   0.1503418   0.1278517  -0.0148285  )
         4           Au  tau(   4) = (   0.2219229   0.2484359   0.2766672  )
         5           Au  tau(   5) = (   0.3219223   0.0480100   0.1428007  )

     number of k points=     1  Marzari-Vanderbilt smearing, width (Ry)=  0.0250
                       cart. coord. in units 2pi/alat
        k(    1) = (   0.0000000   0.0000000   0.0000000), wk =   2.0000000

     Initial potential from superposition of free atoms
     Check: negative starting charge=   -0.006155

     starting charge   54.99940, renormalised to   55.00000

     negative rho (up, down):  6.155E-03 0.000E+00
     Starting wfc are   45 randomized atomic wfcs

     Self-consistent Calculation

     iteration #  1     ecut=    30.00 Ry     beta=0.70
     Davidson diagonalization with overlap
     ethr =  1.00E-02,  avg # of iterations =  3.0

     Threshold (ethr) on eigenvalues was too large:
     Diagonalizing with lowered threshold

     Davidson diagonalization with overlap
     ethr =  3.53E-04,  avg # of iterations =  6.0

     negative rho (up, down):  8.165E-04 0.000E+00

     total energy              =    -329.35797686 Ry
     Harris-Foulkes estimate   =    -329.50778120 Ry
     estimated scf accuracy    <       0.25292336 Ry

[...]

     End of self-consistent calculation

          k = 0.0000 0.0000 0.0000 ( 22119 PWs)   bands (ev):

    -8.1824  -7.7360  -7.4663  -7.2595  -6.9529  -6.8130  -6.6624  -6.4732
    -6.4372  -6.0036  -5.8620  -5.7055  -5.6839  -5.5593  -5.5222  -5.4246
    -5.2488  -5.2209  -5.1569  -5.1069  -5.0633  -5.0240  -4.8969  -4.8767
    -4.7226  -4.4378  -4.3216  -3.6730  -2.5107  -2.2953  -0.3261  -0.1221
     0.3297   0.5736

     the Fermi energy is    -3.6566 ev

!    total energy              =    -329.45732905 Ry
     Harris-Foulkes estimate   =    -329.45732908 Ry
     estimated scf accuracy    <          1.4E-09 Ry

     The total energy is the sum of the following terms:

     one-electron contribution =    -613.06265491 Ry
     hartree contribution      =     328.09701233 Ry
     xc contribution           =     -51.41341291 Ry
     ewald contribution        =       6.92230223 Ry
     smearing contrib. (-TS)   =      -0.00057579 Ry

     convergence has been achieved in  12 iterations

     Forces acting on atoms (Ry/au):

     atom    1 type  1   force =    -0.00986041    0.00073861   -0.00598845
     atom    2 type  1   force =     0.00044558    0.00512945    0.00198691
     atom    3 type  1   force =    -0.01364373   -0.00140504   -0.01470127
     atom    4 type  1   force =     0.00178128   -0.01118391    0.00029504
     atom    5 type  1   force =     0.02127727    0.00672090    0.01840777

     Total force =     0.039159     Total SCF correction =     0.000169

     BFGS Geometry Optimization

     number of scf cycles    =   1
     number of bfgs steps    =   0

     energy   new            =    -329.4573290495 Ry

     new trust radius        =       0.0289264356 bohr
     new conv_thr            =       0.0000000100 Ry

ATOMIC_POSITIONS (bohr)
Au      -1.728810409   0.686095607  -0.247232448
Au       0.041966581   2.779076448   4.055354907
Au       2.993193275   2.555627964  -0.311272268
Au       4.440239285   4.957534085   5.533639036
Au       6.459723269   0.966921895   2.874420772

     Writing output data file pwscf.save
     Check: negative starting charge=   -0.006155
     NEW-OLD atomic charge density approx. for the potential
     Check: negative starting charge=   -0.006143

[...]

     energy   old            =    -329.4573290495 Ry
     energy   new            =    -329.4586786434 Ry

     CASE: energy  _new < energy  _old

[...]

     WARNING: bfgs curvature condition failed, Theta= 0.915
     new trust radius        =       0.1405383883 bohr
     new conv_thr            =       0.0000000016 Ry

[...]

     WARNING: bfgs curvature condition failed, Theta= 0.629
     uphill step: resetting bfgs history

     new trust radius        =       0.0119177102 bohr
     new conv_thr            =       0.0000000004 Ry

[...]

     Self-consistent Calculation

[...]

     Threshold (ethr) on eigenvalues was too large:
     Diagonalizing with lowered threshold

     Davidson diagonalization with overlap
     ethr =  4.12E-08,  avg # of iterations =  1.0

[...]

     total energy              =    -329.48773078 Ry
     Harris-Foulkes estimate   =    -329.48773076 Ry
     estimated scf accuracy    <          5.2E-10 Ry

     iteration #  9     ecut=    30.00 Ry     beta=0.70
     Davidson diagonalization with overlap
     ethr =  9.50E-13,  avg # of iterations =  3.0

     End of self-consistent calculation

          k = 0.0000 0.0000 0.0000 ( 22119 PWs)   bands (ev):

    -8.4679  -7.7157  -7.5837  -7.1691  -7.0914  -6.8077  -6.5637  -6.4681
    -6.2508  -6.0575  -5.9924  -5.7426  -5.7092  -5.6553  -5.4293  -5.3723
    -5.3083  -5.2356  -5.2207  -5.2068  -5.1593  -5.1112  -4.9923  -4.9555
    -4.9349  -4.5694  -4.5109  -3.7759  -2.5038  -2.2025  -0.5340  -0.2260
     0.3950   0.8926

     the Fermi energy is    -3.7453 ev

!    total energy              =    -329.48773082 Ry
     Harris-Foulkes estimate   =    -329.48773078 Ry
     estimated scf accuracy    <          6.2E-11 Ry

     The total energy is the sum of the following terms:

     one-electron contribution =    -605.32762074 Ry
     hartree contribution      =     324.10971576 Ry
     xc contribution           =     -51.39844101 Ry
     ewald contribution        =       3.13233199 Ry
     smearing contrib. (-TS)   =      -0.00371682 Ry

     convergence has been achieved in   9 iterations

     Forces acting on atoms (Ry/au):

     atom    1 type  1   force =    -0.00364195    0.00329388    0.00057611
     atom    2 type  1   force =    -0.00078663   -0.00081844    0.00415014
     atom    3 type  1   force =     0.00597590   -0.00309188    0.00327526
     atom    4 type  1   force =    -0.00404866   -0.00019474   -0.01042334
     atom    5 type  1   force =     0.00250134    0.00081119    0.00242182

     Total force =     0.015389     Total SCF correction =     0.000036

     number of scf cycles    =  50
     number of bfgs steps    =  49

     energy   old            =    -329.4874249611 Ry
     energy   new            =    -329.4877308168 Ry

     CASE: energy  _new < energy  _old

     WARNING: bfgs curvature condition failed, Theta= 0.979
     new trust radius        =       0.0131094813 bohr
     new conv_thr            =       0.0000000003 Ry

ATOMIC_POSITIONS (bohr)
Au      -1.925906994   1.062200735  -0.669017526
Au      -0.496494335   3.654671127   3.619482844
Au       2.974551120   1.436595895   0.489559308
Au       4.137084738   3.795143683   5.941991638
Au       7.517077470   1.996644561   2.522893735

     Writing output data file pwscf.save
     Check: negative starting charge=   -0.006454
     NEW-OLD atomic charge density approx. for the potential
     Check: negative starting charge=   -0.006460

     negative rho (up, down):  1.023E-05 0.000E+00

     Writing output data file pwscf.save

     General routines

     Parallel routines

   This run was terminated on:   3:26:45   4Aug2017

   JOB DONE.