     Program PWSCF v.6.0 (svn rev. 13079) starts on  4Aug2017 at  1:42:53

     Current dimensions of program PWSCF are:
     Max number of different atomic species (ntypx) = 10
     Max number of k-points (npk) =  40000
     Max angular momentum in pseudopotentials (lmaxx) =  3
     Message from routine iosys:
     pot_extrapolation='second-order' not available, using 'atomic'
     Message from routine iosys:
     wfc_extrapolation='second-order' not available, using 'atomic'

     Subspace diagonalization in iterative solution of the eigenvalue problem:
     a serial algorithm will be used

     bravais-lattice index     =            1
     lattice parameter (alat)  =      20.0000  a.u.
     unit-cell volume          =    8000.0000 (a.u.)^3
     number of atoms/cell      =            5
     number of atomic types    =            1
     number of electrons       =        55.00
     number of Kohn-Sham states=           34
     kinetic-energy cutoff     =      30.0000  Ry
     charge density cutoff     =     120.0000  Ry
     convergence threshold     =      1.0E-08
     mixing beta               =       0.7000
     number of iterations used =            8  plain     mixing
     Exchange-correlation      = BLYP ( 1  3  1  3 0 0)
     nstep                     =           50

     celldm(1)=  20.000000  celldm(2)=   0.000000  celldm(3)=   0.000000
     celldm(4)=   0.000000  celldm(5)=   0.000000  celldm(6)=   0.000000

     crystal axes: (cart. coord. in units of alat)
               a(1) = (   1.000000   0.000000   0.000000 )
               a(2) = (   0.000000   1.000000   0.000000 )
               a(3) = (   0.000000   0.000000   1.000000 )

     reciprocal axes: (cart. coord. in units 2 pi/alat)
               b(1) = (  1.000000  0.000000  0.000000 )
               b(2) = (  0.000000  1.000000  0.000000 )
               b(3) = (  0.000000  0.000000  1.000000 )

     PseudoPot. # 1 for Au read from file:
     ./Au.blyp-d-hgh.UPF
     MD5 check sum: c10d8bae01f806c36a1643a1c69a8479
     Pseudo is Norm-conserving, Zval = 11.0
     Generated in analytical, separable form
     Using radial grid of 1279 points,  6 beta functions with:
                l(1) =   0
                l(2) =   0
                l(3) =   1
                l(4) =   1
                l(5) =   2
                l(6) =   2

     atomic species   valence    mass     pseudopotential
        Au            11.00    28.08600     Au( 1.00)

     No symmetry found

   Cartesian axes

     site n.     atom                  positions (alat units)
         1           Au  tau(   1) = (  -0.1040495   0.0778158  -0.0333408  )
         2           Au  tau(   2) = (   0.0019501   0.1453754   0.1978474  )
         3           Au  tau(   3) = (   0.1424900   0.0988749  -0.0026764  )
         4           Au  tau(   4) = (   0.2160048   0.2558130   0.2942893  )
         5           Au  tau(   5) = (   0.3268683   0.0660720   0.1511854  )

     number of k points=     1  Marzari-Vanderbilt smearing, width (Ry)=  0.0250
                       cart. coord. in units 2pi/alat
        k(    1) = (   0.0000000   0.0000000   0.0000000), wk =   2.0000000

     Initial potential from superposition of free atoms
     Check: negative starting charge=   -0.006298

     starting charge   54.99940, renormalised to   55.00000

     negative rho (up, down):  6.299E-03 0.000E+00
     Starting wfc are   45 randomized atomic wfcs

     Self-consistent Calculation

     iteration #  1     ecut=    30.00 Ry     beta=0.70
     Davidson diagonalization with overlap
     ethr =  1.00E-02,  avg # of iterations =  3.0

     Threshold (ethr) on eigenvalues was too large:
     Diagonalizing with lowered threshold

     Davidson diagonalization with overlap
     ethr =  3.96E-04,  avg # of iterations =  7.0

     negative rho (up, down):  8.353E-04 0.000E+00

     total energy              =    -329.35941729 Ry
     Harris-Foulkes estimate   =    -329.52182899 Ry
     estimated scf accuracy    <       0.27305684 Ry

[...]

     End of self-consistent calculation

          k = 0.0000 0.0000 0.0000 ( 22119 PWs)   bands (ev):

    -8.4116  -7.8315  -7.6828  -7.2869  -6.9306  -6.8629  -6.6785  -6.4429
    -6.2716  -5.9530  -5.8522  -5.7773  -5.7203  -5.5623  -5.5269  -5.4811
    -5.2289  -5.1811  -5.1651  -5.1358  -5.1196  -4.9983  -4.9551  -4.9063
    -4.8114  -4.5646  -4.3086  -3.6874  -2.4869  -2.1911  -0.3746  -0.1466
     0.3833   0.4977

     the Fermi energy is    -3.6675 ev

!    total energy              =    -329.46580898 Ry
     Harris-Foulkes estimate   =    -329.46580904 Ry
     estimated scf accuracy    <          9.3E-09 Ry

     The total energy is the sum of the following terms:

     one-electron contribution =    -609.69369517 Ry
     hartree contribution      =     326.36389395 Ry
     xc contribution           =     -51.43077572 Ry
     ewald contribution        =       5.29640339 Ry
     smearing contrib. (-TS)   =      -0.00163543 Ry

     convergence has been achieved in  11 iterations

     Forces acting on atoms (Ry/au):

     atom    1 type  1   force =    -0.01308131    0.00195437    0.00424401
     atom    2 type  1   force =    -0.01302193    0.01194832    0.01166232
     atom    3 type  1   force =    -0.00161992   -0.00653255   -0.03916211
     atom    4 type  1   force =    -0.00372884   -0.01503120   -0.00417573
     atom    5 type  1   force =     0.03145200    0.00766106    0.02743150

     Total force =     0.065406     Total SCF correction =     0.000335

     BFGS Geometry Optimization

     number of scf cycles    =   1
     number of bfgs steps    =   0

     energy   new            =    -329.4658089806 Ry

     new trust radius        =       0.0424312087 bohr
     new conv_thr            =       0.0000000100 Ry

ATOMIC_POSITIONS (bohr)
Au      -2.094071312   1.558271368  -0.662571994
Au       0.025979073   2.919456320   3.968609323
Au       2.848179079   1.970964454  -0.092691105
Au       4.316368161   5.101227800   5.881610272
Au       6.568818999   1.329101058   3.051139504

     Writing output data file pwscf.save
     Check: negative starting charge=   -0.006298
     NEW-OLD atomic charge density approx. for the potential
     Check: negative starting charge=   -0.006286

[...]

     energy   old            =    -329.4658089806 Ry
     energy   new            =    -329.4694224556 Ry

     CASE: energy  _new < energy  _old

[...]

     iteration #  1     ecut=    30.00 Ry     beta=0.70
     Davidson diagonalization with overlap
     c_bands:  1 eigenvalues not converged
     ethr =  1.00E-06,  avg # of iterations = 20.0

[...]

     WARNING: bfgs curvature condition failed, Theta= 0.627
     new trust radius        =       0.0538022508 bohr
     new conv_thr            =            1.0E-10 Ry

[...]

     CASE: energy  _new > energy  _old

[...]

     WARNING: info= 11 for Hessian
     uphill step: resetting bfgs history

[...]

     WARNING: bfgs curvature condition failed, Theta= 0.959
     new trust radius        =       0.0027435343 bohr
     new conv_thr            =            1.0E-10 Ry

[...]

     number of scf cycles    =  40
     number of bfgs steps    =  38

     energy   old            =    -329.4858593150 Ry
     energy   new            =    -329.4858760015 Ry

     CASE: energy  _new < energy  _old

     new trust radius        =       0.0061729522 bohr
     new conv_thr            =            1.0E-10 Ry

ATOMIC_POSITIONS (bohr)
Au      -2.199235934   1.647410362  -0.667040025
Au       0.047116196   3.585865010   3.512186514
Au       2.841368209   1.040729907  -0.041930220
Au       4.121920390   4.636463277   6.376393773
Au       6.854105139   1.968552444   2.966485958

     Writing output data file pwscf.save
     Check: negative starting charge=   -0.006285
     NEW-OLD atomic charge density approx. for the potential
     Check: negative starting charge=   -0.006287

     negative rho (up, down):  5.576E-07 0.000E+00

     Self-consistent Calculation

[...]

     Threshold (ethr) on eigenvalues was too large:
     Diagonalizing with lowered threshold

     Davidson diagonalization with overlap
     ethr =  1.61E-08,  avg # of iterations =  1.0

[...]

     total energy              =    -329.48589454 Ry
     Harris-Foulkes estimate   =    -329.48589454 Ry
     estimated scf accuracy    <          1.3E-10 Ry

     iteration # 10     ecut=    30.00 Ry     beta=0.70
     Davidson diagonalization with overlap
     ethr =  2.31E-13,  avg # of iterations =  2.0

     End of self-consistent calculation

          k = 0.0000 0.0000 0.0000 ( 22119 PWs)   bands (ev):

    -8.2213  -7.5347  -7.4838  -7.3282  -7.0393  -6.6377  -6.3516  -6.2949
    -6.2420  -6.1328  -6.0556  -5.7106  -5.6258  -5.6124  -5.5335  -5.4853
    -5.2650  -5.2200  -5.2189  -5.0692  -5.0517  -5.0161  -4.9196  -4.9042
    -4.8524  -4.6747  -4.3222  -3.7826  -2.5471  -2.0794  -0.4864  -0.2876
     0.3500   0.7980

     the Fermi energy is    -3.7747 ev

!    total energy              =    -329.48589454 Ry
     Harris-Foulkes estimate   =    -329.48589454 Ry
     estimated scf accuracy    <          6.3E-12 Ry

     The total energy is the sum of the following terms:

     one-electron contribution =    -597.95801009 Ry
     hartree contribution      =     320.53648276 Ry
     xc contribution           =     -51.40768737 Ry
     ewald contribution        =      -0.65724587 Ry
     smearing contrib. (-TS)   =       0.00056603 Ry

     convergence has been achieved in  10 iterations

     Forces acting on atoms (Ry/au):

     atom    1 type  1   force =    -0.00045585    0.00029838    0.00003880
     atom    2 type  1   force =     0.00089935    0.00063301   -0.00023904
     atom    3 type  1   force =     0.00040288   -0.00062902   -0.00067804
     atom    4 type  1   force =    -0.00001372    0.00057097    0.00015789
     atom    5 type  1   force =    -0.00083265   -0.00087334    0.00072039

     Total force =     0.002216     Total SCF correction =     0.000009

     bfgs converged in  41 scf cycles and  39 bfgs steps
     (criteria: energy <  1.0E-04, force <  1.0E-03)

     End of BFGS Geometry Optimization

     Final energy   =    -329.4858945395 Ry
Begin final coordinates

ATOMIC_POSITIONS (bohr)
Au      -2.199235934   1.647410362  -0.667040025
Au       0.047116196   3.585865010   3.512186514
Au       2.841368209   1.040729907  -0.041930220
Au       4.121920390   4.636463277   6.376393773
Au       6.854105139   1.968552444   2.966485958
End final coordinates

     Writing output data file pwscf.save

     General routines

     Parallel routines

   This run was terminated on:   1:44:41   4Aug2017

   JOB DONE.