     Program PWSCF v.6.0 (svn rev. 13079) starts on  4Aug2017 at  5: 6:10

     Current dimensions of program PWSCF are:
     Max number of different atomic species (ntypx) = 10
     Max number of k-points (npk) =  40000
     Max angular momentum in pseudopotentials (lmaxx) =  3
     Message from routine iosys:
     pot_extrapolation='second-order' not available, using 'atomic'
     Message from routine iosys:
     wfc_extrapolation='second-order' not available, using 'atomic'

     Subspace diagonalization in iterative solution of the eigenvalue problem:
     a serial algorithm will be used

     bravais-lattice index     =            1
     lattice parameter (alat)  =      20.0000  a.u.
     unit-cell volume          =    8000.0000 (a.u.)^3
     number of atoms/cell      =            5
     number of atomic types    =            1
     number of electrons       =        55.00
     number of Kohn-Sham states=           34
     kinetic-energy cutoff     =      30.0000  Ry
     charge density cutoff     =     120.0000  Ry
     convergence threshold     =      1.0E-08
     mixing beta               =       0.7000
     number of iterations used =            8  plain     mixing
     Exchange-correlation      = BLYP ( 1  3  1  3 0 0)
     nstep                     =           50

     celldm(1)=  20.000000  celldm(2)=   0.000000  celldm(3)=   0.000000
     celldm(4)=   0.000000  celldm(5)=   0.000000  celldm(6)=   0.000000

     crystal axes: (cart. coord. in units of alat)
               a(1) = (   1.000000   0.000000   0.000000 )
               a(2) = (   0.000000   1.000000   0.000000 )
               a(3) = (   0.000000   0.000000   1.000000 )

     reciprocal axes: (cart. coord. in units 2 pi/alat)
               b(1) = (  1.000000  0.000000  0.000000 )
               b(2) = (  0.000000  1.000000  0.000000 )
               b(3) = (  0.000000  0.000000  1.000000 )

     PseudoPot. # 1 for Au read from file:
     ./Au.blyp-d-hgh.UPF
     MD5 check sum: c10d8bae01f806c36a1643a1c69a8479
     Pseudo is Norm-conserving, Zval = 11.0
     Generated in analytical, separable form
     Using radial grid of 1279 points,  6 beta functions with:
                l(1) =   0
                l(2) =   0
                l(3) =   1
                l(4) =   1
                l(5) =   2
                l(6) =   2

     atomic species   valence    mass     pseudopotential
        Au            11.00    28.08600     Au( 1.00)

     No symmetry found

   Cartesian axes

     site n.     atom                  positions (alat units)
         1           Au  tau(   1) = (  -0.0533042   0.0008101   0.0319581  )
         2           Au  tau(   2) = (   0.0118553   0.1823171   0.1943747  )
         3           Au  tau(   3) = (   0.1515915   0.1447744  -0.0158796  )
         4           Au  tau(   4) = (   0.2495795   0.2472977   0.2772943  )
         5           Au  tau(   5) = (   0.2670107   0.0212839   0.1583043  )

     number of k points=     1  Marzari-Vanderbilt smearing, width (Ry)=  0.0250
                       cart. coord. in units 2pi/alat
        k(    1) = (   0.0000000   0.0000000   0.0000000), wk =   2.0000000

     Initial potential from superposition of free atoms
     Check: negative starting charge=   -0.006110

     starting charge   54.99940, renormalised to   55.00000

     negative rho (up, down):  6.110E-03 0.000E+00
     Starting wfc are   45 randomized atomic wfcs

     Self-consistent Calculation

     iteration #  1     ecut=    30.00 Ry     beta=0.70
     Davidson diagonalization with overlap
     ethr =  1.00E-02,  avg # of iterations =  5.0

     Threshold (ethr) on eigenvalues was too large:
     Diagonalizing with lowered threshold

     Davidson diagonalization with overlap
     ethr =  3.39E-04,  avg # of iterations =  3.0

     negative rho (up, down):  7.727E-04 0.000E+00

     total energy              =    -329.33174676 Ry
     Harris-Foulkes estimate   =    -329.47520154 Ry
     estimated scf accuracy    <       0.24271041 Ry

[...]

     End of self-consistent calculation

          k = 0.0000 0.0000 0.0000 ( 22119 PWs)   bands (ev):

    -8.5411  -7.9272  -7.4975  -7.2708  -7.0984  -7.0446  -6.8309  -6.7109
    -6.5725  -6.1582  -5.8567  -5.8151  -5.6884  -5.5820  -5.4447  -5.3972
    -5.3585  -5.2115  -5.0920  -5.0344  -5.0187  -4.9864  -4.9619  -4.9031
    -4.6446  -4.4762  -4.1379  -3.4704  -2.8225  -2.2159  -0.2136  -0.0342
     0.2670   0.5490

     the Fermi energy is    -3.4414 ev

!    total energy              =    -329.42188658 Ry
     Harris-Foulkes estimate   =    -329.42188661 Ry
     estimated scf accuracy    <          6.4E-09 Ry

     The total energy is the sum of the following terms:

     one-electron contribution =    -635.06213318 Ry
     hartree contribution      =     339.02123785 Ry
     xc contribution           =     -51.44146509 Ry
     ewald contribution        =      18.06433232 Ry
     smearing contrib. (-TS)   =      -0.00385847 Ry

     convergence has been achieved in  12 iterations

     Forces acting on atoms (Ry/au):

     atom    1 type  1   force =    -0.02055358   -0.00917364   -0.01092313
     atom    2 type  1   force =    -0.00190653    0.01149294    0.02618584
     atom    3 type  1   force =    -0.00186749    0.01231077   -0.05078844
     atom    4 type  1   force =    -0.00505631    0.00221278    0.00641361
     atom    5 type  1   force =     0.02938391   -0.01684286    0.02911212

     Total force =     0.079045     Total SCF correction =     0.000282

     BFGS Geometry Optimization

     number of scf cycles    =   1
     number of bfgs steps    =   0

     energy   new            =    -329.4218865809 Ry

     new trust radius        =       0.0522925277 bohr
     new conv_thr            =       0.0000000100 Ry

ATOMIC_POSITIONS (bohr)
Au      -1.086638580   0.007028365   0.628237874
Au       0.235198468   3.657833943   3.913680841
Au       3.029961510   2.907799773  -0.368380442
Au       4.986532694   4.948165779   5.552300608
Au       5.369597908   0.408835140   3.195198118

     Writing output data file pwscf.save
     Check: negative starting charge=   -0.006110
     NEW-OLD atomic charge density approx. for the potential
     Check: negative starting charge=   -0.006065

[...]

     energy   old            =    -329.4218865809 Ry
     energy   new            =    -329.4268888370 Ry

     CASE: energy  _new < energy  _old

[...]

     WARNING: bfgs curvature condition failed, Theta= 0.795
     new trust radius        =       0.2167760263 bohr
     new conv_thr            =       0.0000000022 Ry

[...]

     iteration #  1     ecut=    30.00 Ry     beta=0.70
     Davidson diagonalization with overlap
     c_bands:  1 eigenvalues not converged
     ethr =  1.00E-06,  avg # of iterations = 20.0

[...]

     iteration #  1     ecut=    30.00 Ry     beta=0.70
     Davidson diagonalization with overlap
     c_bands:  1 eigenvalues not converged
     ethr =  1.00E-06,  avg # of iterations = 20.0

[...]

     WARNING: info=  9 for Hessian
     new trust radius        =       0.0444738035 bohr
     new conv_thr            =            1.0E-10 Ry

[...]

     WARNING: info=  9 for Hessian
     uphill step: resetting bfgs history

[...]

     WARNING: bfgs curvature condition failed, Theta= 0.919
     new trust radius        =       0.0026997315 bohr
     new conv_thr            =            1.0E-10 Ry

[...]

     number of scf cycles    =  36
     number of bfgs steps    =  35

     energy   old            =    -329.4925698125 Ry
     energy   new            =    -329.4925873703 Ry

     CASE: energy  _new < energy  _old

     new trust radius        =       0.0060743958 bohr
     new conv_thr            =            1.0E-10 Ry

ATOMIC_POSITIONS (bohr)
Au      -2.157542877   1.397399953   0.201892493
Au       1.031646140   3.170340025   3.705197156
Au       2.823829088   0.412700996  -0.690473790
Au       4.611348154   4.784074855   6.918292802
Au       6.225371495   2.165147172   2.786128340

     Writing output data file pwscf.save
     Check: negative starting charge=   -0.006260
     NEW-OLD atomic charge density approx. for the potential
     Check: negative starting charge=   -0.006262

     negative rho (up, down):  6.324E-07 0.000E+00

     Self-consistent Calculation

[...]

     Threshold (ethr) on eigenvalues was too large:
     Diagonalizing with lowered threshold

     Davidson diagonalization with overlap
     ethr =  8.71E-09,  avg # of iterations =  2.0

[...]

     total energy              =    -329.49260550 Ry
     Harris-Foulkes estimate   =    -329.49260555 Ry
     estimated scf accuracy    <          2.1E-10 Ry

     iteration #  9     ecut=    30.00 Ry     beta=0.70
     Davidson diagonalization with overlap
     ethr =  3.73E-13,  avg # of iterations =  2.0

     End of self-consistent calculation

          k = 0.0000 0.0000 0.0000 ( 22119 PWs)   bands (ev):

    -8.4859  -7.7741  -7.6550  -7.2474  -6.8589  -6.7972  -6.6141  -6.4787
    -6.3232  -6.0614  -5.9556  -5.7576  -5.7176  -5.6761  -5.4584  -5.3536
    -5.3097  -5.2421  -5.1891  -5.1811  -5.1656  -5.1222  -5.0011  -4.9170
    -4.8451  -4.7277  -4.4801  -3.7460  -2.4061  -2.2388  -0.5315  -0.2034
     0.3924   0.7586

     the Fermi energy is    -3.7094 ev

!    total energy              =    -329.49260549 Ry
     Harris-Foulkes estimate   =    -329.49260550 Ry
     estimated scf accuracy    <          2.9E-11 Ry

     The total energy is the sum of the following terms:

     one-electron contribution =    -604.52675651 Ry
     hartree contribution      =     323.70262917 Ry
     xc contribution           =     -51.39761368 Ry
     ewald contribution        =       2.73442604 Ry
     smearing contrib. (-TS)   =      -0.00529052 Ry

     convergence has been achieved in   9 iterations

     Forces acting on atoms (Ry/au):

     atom    1 type  1   force =     0.00026478    0.00001033    0.00081607
     atom    2 type  1   force =    -0.00008857    0.00040259   -0.00007057
     atom    3 type  1   force =    -0.00017344   -0.00048812    0.00005017
     atom    4 type  1   force =    -0.00034355   -0.00066790    0.00019007
     atom    5 type  1   force =     0.00034079    0.00074309   -0.00098575

     Total force =     0.001850     Total SCF correction =     0.000022

     bfgs converged in  37 scf cycles and  36 bfgs steps
     (criteria: energy <  1.0E-04, force <  1.0E-03)

     End of BFGS Geometry Optimization

     Final energy   =    -329.4926054899 Ry
Begin final coordinates

ATOMIC_POSITIONS (bohr)
Au      -2.157542877   1.397399953   0.201892493
Au       1.031646140   3.170340025   3.705197156
Au       2.823829088   0.412700996  -0.690473790
Au       4.611348154   4.784074855   6.918292802
Au       6.225371495   2.165147172   2.786128340
End final coordinates

     Writing output data file pwscf.save

     General routines

     Parallel routines

   This run was terminated on:   5: 7:57   4Aug2017

   JOB DONE.