     Program PWSCF v.6.0 (svn rev. 13079) starts on  3Aug2017 at 20:42:37

     Current dimensions of program PWSCF are:
     Max number of different atomic species (ntypx) = 10
     Max number of k-points (npk) =  40000
     Max angular momentum in pseudopotentials (lmaxx) =  3
     Message from routine iosys:
     pot_extrapolation='second-order' not available, using 'atomic'
     Message from routine iosys:
     wfc_extrapolation='second-order' not available, using 'atomic'

     Subspace diagonalization in iterative solution of the eigenvalue problem:
     a serial algorithm will be used

     bravais-lattice index     =            1
     lattice parameter (alat)  =      20.0000  a.u.
     unit-cell volume          =    8000.0000 (a.u.)^3
     number of atoms/cell      =            5
     number of atomic types    =            1
     number of electrons       =        55.00
     number of Kohn-Sham states=           34
     kinetic-energy cutoff     =      30.0000  Ry
     charge density cutoff     =     120.0000  Ry
     convergence threshold     =      1.0E-08
     mixing beta               =       0.7000
     number of iterations used =            8  plain     mixing
     Exchange-correlation      = BLYP ( 1  3  1  3 0 0)
     nstep                     =           50

     celldm(1)=  20.000000  celldm(2)=   0.000000  celldm(3)=   0.000000
     celldm(4)=   0.000000  celldm(5)=   0.000000  celldm(6)=   0.000000

     crystal axes: (cart. coord. in units of alat)
               a(1) = (   1.000000   0.000000   0.000000 )
               a(2) = (   0.000000   1.000000   0.000000 )
               a(3) = (   0.000000   0.000000   1.000000 )

     reciprocal axes: (cart. coord. in units 2 pi/alat)
               b(1) = (  1.000000  0.000000  0.000000 )
               b(2) = (  0.000000  1.000000  0.000000 )
               b(3) = (  0.000000  0.000000  1.000000 )

     PseudoPot. # 1 for Au read from file:
     ./Au.blyp-d-hgh.UPF
     MD5 check sum: c10d8bae01f806c36a1643a1c69a8479
     Pseudo is Norm-conserving, Zval = 11.0
     Generated in analytical, separable form
     Using radial grid of 1279 points,  6 beta functions with:
                l(1) =   0
                l(2) =   0
                l(3) =   1
                l(4) =   1
                l(5) =   2
                l(6) =   2

     atomic species   valence    mass     pseudopotential
        Au            11.00    28.08600     Au( 1.00)

     No symmetry found

   Cartesian axes

     site n.     atom                  positions (alat units)
         1           Au  tau(   1) = (  -0.0892867   0.1305420  -0.0567961  )
         2           Au  tau(   2) = (  -0.0370794   0.1799335   0.1825570  )
         3           Au  tau(   3) = (   0.1591557   0.0877489   0.0023959  )
         4           Au  tau(   4) = (   0.1916299   0.1781357   0.3012716  )
         5           Au  tau(   5) = (   0.3774052   0.0645305   0.1654446  )

     number of k points=     1  Marzari-Vanderbilt smearing, width (Ry)=  0.0250
                       cart. coord. in units 2pi/alat
        k(    1) = (   0.0000000   0.0000000   0.0000000), wk =   2.0000000

     Initial potential from superposition of free atoms
     Check: negative starting charge=   -0.006237

     starting charge   54.99940, renormalised to   55.00000

     negative rho (up, down):  6.237E-03 0.000E+00
     Starting wfc are   45 randomized atomic wfcs

     Self-consistent Calculation

     iteration #  1     ecut=    30.00 Ry     beta=0.70
     Davidson diagonalization with overlap
     ethr =  1.00E-02,  avg # of iterations =  3.0

     Threshold (ethr) on eigenvalues was too large:
     Diagonalizing with lowered threshold

     Davidson diagonalization with overlap
     ethr =  4.04E-04,  avg # of iterations =  5.0

     negative rho (up, down):  8.523E-04 0.000E+00

     total energy              =    -329.36076078 Ry
     Harris-Foulkes estimate   =    -329.52628446 Ry
     estimated scf accuracy    <       0.27450697 Ry

[...]

     End of self-consistent calculation

          k = 0.0000 0.0000 0.0000 ( 22119 PWs)   bands (ev):

    -8.0189  -7.4919  -7.3950  -7.0164  -6.8534  -6.6404  -6.5370  -6.3276
    -6.1494  -6.0331  -5.8298  -5.6839  -5.6145  -5.5639  -5.4241  -5.3758
    -5.3097  -5.2165  -5.1843  -5.1660  -5.1334  -5.1252  -5.0841  -4.9597
    -4.8374  -4.6782  -4.4281  -3.8165  -2.7121  -2.1773  -0.4781  -0.2473
     0.3506   0.6888

     the Fermi energy is    -3.7994 ev

!    total energy              =    -329.47393349 Ry
     Harris-Foulkes estimate   =    -329.47393347 Ry
     estimated scf accuracy    <          6.1E-09 Ry

     The total energy is the sum of the following terms:

     one-electron contribution =    -588.54313240 Ry
     hartree contribution      =     315.84560991 Ry
     xc contribution           =     -51.35725468 Ry
     ewald contribution        =      -5.41818146 Ry
     smearing contrib. (-TS)   =      -0.00097486 Ry

     convergence has been achieved in  12 iterations

     Forces acting on atoms (Ry/au):

     atom    1 type  1   force =     0.00928679   -0.00599276   -0.01288751
     atom    2 type  1   force =     0.01442827   -0.00083154    0.00364196
     atom    3 type  1   force =     0.00129674    0.00461389    0.03149055
     atom    4 type  1   force =     0.00485872   -0.00399648   -0.00693897
     atom    5 type  1   force =    -0.02987051    0.00620688   -0.01530604

     Total force =     0.052705     Total SCF correction =     0.000280

     BFGS Geometry Optimization

     number of scf cycles    =   1
     number of bfgs steps    =   0

     energy   new            =    -329.4739334863 Ry

     new trust radius        =       0.0341327932 bohr
     new conv_thr            =       0.0000000100 Ry

ATOMIC_POSITIONS (bohr)
Au      -1.776447212   2.604847238  -1.148809506
Au      -0.727160730   3.597838464   3.654781958
Au       3.184410736   1.759590894   0.079407553
Au       3.837456718   3.558716522   6.018493033
Au       7.518233489   1.296817881   3.293586962

     Writing output data file pwscf.save
     Check: negative starting charge=   -0.006237
     NEW-OLD atomic charge density approx. for the potential
     Check: negative starting charge=   -0.006228

[...]

     energy   old            =    -329.4739334863 Ry
     energy   new            =    -329.4765609269 Ry

     CASE: energy  _new < energy  _old

     WARNING: bfgs curvature condition failed, Theta= 0.895
     new trust radius        =       0.0375460725 bohr
     new conv_thr            =       0.0000000026 Ry

[...]

     WARNING: bfgs curvature condition failed, Theta= 0.974
     new trust radius        =       0.0097463779 bohr
     new conv_thr            =            1.0E-10 Ry

[...]

     Threshold (ethr) on eigenvalues was too large:
     Diagonalizing with lowered threshold

     Davidson diagonalization with overlap
     ethr =  9.32E-08,  avg # of iterations =  1.0

[...]

     Self-consistent Calculation

[...]

     total energy              =    -329.49334289 Ry
     Harris-Foulkes estimate   =    -329.49334287 Ry
     estimated scf accuracy    <          1.3E-10 Ry

     iteration # 10     ecut=    30.00 Ry     beta=0.70
     Davidson diagonalization with overlap
     ethr =  2.28E-13,  avg # of iterations =  2.0

     End of self-consistent calculation

          k = 0.0000 0.0000 0.0000 ( 22119 PWs)   bands (ev):

    -8.5078  -7.7821  -7.6546  -7.2358  -6.8508  -6.8161  -6.6126  -6.4786
    -6.3120  -6.0751  -5.9483  -5.7682  -5.7274  -5.6833  -5.4604  -5.3586
    -5.3110  -5.2502  -5.1980  -5.1778  -5.1739  -5.1222  -5.0016  -4.9222
    -4.8345  -4.7384  -4.4777  -3.7687  -2.4315  -2.2096  -0.5363  -0.1824
     0.4514   0.7929

     the Fermi energy is    -3.7349 ev

!    total energy              =    -329.49334290 Ry
     Harris-Foulkes estimate   =    -329.49334289 Ry
     estimated scf accuracy    <          1.3E-11 Ry

     The total energy is the sum of the following terms:

     one-electron contribution =    -606.85106943 Ry
     hartree contribution      =     324.85870941 Ry
     xc contribution           =     -51.39936845 Ry
     ewald contribution        =       3.90302745 Ry
     smearing contrib. (-TS)   =      -0.00464189 Ry

     convergence has been achieved in  10 iterations

     Forces acting on atoms (Ry/au):

     atom    1 type  1   force =    -0.00064775   -0.00022285    0.00042353
     atom    2 type  1   force =     0.00020233    0.00034720   -0.00049080
     atom    3 type  1   force =     0.00033602    0.00132829    0.00003438
     atom    4 type  1   force =    -0.00026469   -0.00035797    0.00018514
     atom    5 type  1   force =     0.00037409   -0.00109467   -0.00015225

     Total force =     0.002127     Total SCF correction =     0.000016

     number of scf cycles    =  50
     number of bfgs steps    =  49

     energy   old            =    -329.4933137109 Ry
     energy   new            =    -329.4933429049 Ry

     CASE: energy  _new < energy  _old

     new trust radius        =       0.0035025915 bohr
     new conv_thr            =            1.0E-10 Ry

ATOMIC_POSITIONS (bohr)
Au      -1.447793182   2.525282265  -1.339265953
Au      -0.813736141   4.187684489   3.525363253
Au       3.070596589   1.634206866   0.735698184
Au       3.742825360   3.380051927   5.838661514
Au       7.484600374   1.090585452   3.137003002

     Writing output data file pwscf.save
     Check: negative starting charge=   -0.006354
     NEW-OLD atomic charge density approx. for the potential
     Check: negative starting charge=   -0.006354

     negative rho (up, down):  1.306E-08 0.000E+00

     Writing output data file pwscf.save

     General routines

     Parallel routines

   This run was terminated on:  20:44:47   3Aug2017

   JOB DONE.