     Program PWSCF v.6.0 (svn rev. 13079) starts on  3Aug2017 at 19:27:13

     Current dimensions of program PWSCF are:
     Max number of different atomic species (ntypx) = 10
     Max number of k-points (npk) =  40000
     Max angular momentum in pseudopotentials (lmaxx) =  3
     Message from routine iosys:
     pot_extrapolation='second-order' not available, using 'atomic'
     Message from routine iosys:
     wfc_extrapolation='second-order' not available, using 'atomic'

     Subspace diagonalization in iterative solution of the eigenvalue problem:
     a serial algorithm will be used

     bravais-lattice index     =            1
     lattice parameter (alat)  =      20.0000  a.u.
     unit-cell volume          =    8000.0000 (a.u.)^3
     number of atoms/cell      =            5
     number of atomic types    =            1
     number of electrons       =        55.00
     number of Kohn-Sham states=           34
     kinetic-energy cutoff     =      30.0000  Ry
     charge density cutoff     =     120.0000  Ry
     convergence threshold     =      1.0E-08
     mixing beta               =       0.7000
     number of iterations used =            8  plain     mixing
     Exchange-correlation      = BLYP ( 1  3  1  3 0 0)
     nstep                     =           50

     celldm(1)=  20.000000  celldm(2)=   0.000000  celldm(3)=   0.000000
     celldm(4)=   0.000000  celldm(5)=   0.000000  celldm(6)=   0.000000

     crystal axes: (cart. coord. in units of alat)
               a(1) = (   1.000000   0.000000   0.000000 )
               a(2) = (   0.000000   1.000000   0.000000 )
               a(3) = (   0.000000   0.000000   1.000000 )

     reciprocal axes: (cart. coord. in units 2 pi/alat)
               b(1) = (  1.000000  0.000000  0.000000 )
               b(2) = (  0.000000  1.000000  0.000000 )
               b(3) = (  0.000000  0.000000  1.000000 )

     PseudoPot. # 1 for Au read from file:
     ./Au.blyp-d-hgh.UPF
     MD5 check sum: c10d8bae01f806c36a1643a1c69a8479
     Pseudo is Norm-conserving, Zval = 11.0
     Generated in analytical, separable form
     Using radial grid of 1279 points,  6 beta functions with:
                l(1) =   0
                l(2) =   0
                l(3) =   1
                l(4) =   1
                l(5) =   2
                l(6) =   2

     atomic species   valence    mass     pseudopotential
        Au            11.00    28.08600     Au( 1.00)

     No symmetry found

   Cartesian axes

     site n.     atom                  positions (alat units)
         1           Au  tau(   1) = (  -0.0942278   0.1053815  -0.0522265  )
         2           Au  tau(   2) = (  -0.0396023   0.1886950   0.1800662  )
         3           Au  tau(   3) = (   0.1491340   0.0503919   0.0256390  )
         4           Au  tau(   4) = (   0.1938776   0.1759204   0.2869966  )
         5           Au  tau(   5) = (   0.3847412   0.0562568   0.1659500  )

     number of k points=     1  Marzari-Vanderbilt smearing, width (Ry)=  0.0250
                       cart. coord. in units 2pi/alat
        k(    1) = (   0.0000000   0.0000000   0.0000000), wk =   2.0000000

     Initial potential from superposition of free atoms
     Check: negative starting charge=   -0.006246

     starting charge   54.99940, renormalised to   55.00000

     negative rho (up, down):  6.246E-03 0.000E+00
     Starting wfc are   45 randomized atomic wfcs

     Self-consistent Calculation

     iteration #  1     ecut=    30.00 Ry     beta=0.70
     Davidson diagonalization with overlap
     ethr =  1.00E-02,  avg # of iterations =  3.0

     Threshold (ethr) on eigenvalues was too large:
     Diagonalizing with lowered threshold

     Davidson diagonalization with overlap
     ethr =  3.78E-04,  avg # of iterations =  6.0

     negative rho (up, down):  8.441E-04 0.000E+00

     total energy              =    -329.37443787 Ry
     Harris-Foulkes estimate   =    -329.53072455 Ry
     estimated scf accuracy    <       0.26251280 Ry

[...]

     End of self-consistent calculation

          k = 0.0000 0.0000 0.0000 ( 22119 PWs)   bands (ev):

    -8.0492  -7.5037  -7.4703  -7.1069  -6.8061  -6.6456  -6.5376  -6.3685
    -6.2292  -5.9950  -5.8087  -5.6686  -5.6254  -5.5781  -5.4538  -5.4082
    -5.3375  -5.2146  -5.1910  -5.1830  -5.1453  -5.1361  -5.0983  -4.9037
    -4.8481  -4.7818  -4.4368  -3.7912  -2.7517  -2.1410  -0.4898  -0.1837
     0.3584   0.7541

     the Fermi energy is    -3.7653 ev

!    total energy              =    -329.47807210 Ry
     Harris-Foulkes estimate   =    -329.47807211 Ry
     estimated scf accuracy    <          4.3E-09 Ry

     The total energy is the sum of the following terms:

     one-electron contribution =    -591.09233717 Ry
     hartree contribution      =     317.08712490 Ry
     xc contribution           =     -51.35415511 Ry
     ewald contribution        =      -4.11574049 Ry
     smearing contrib. (-TS)   =      -0.00296423 Ry

     convergence has been achieved in  13 iterations

     Forces acting on atoms (Ry/au):

     atom    1 type  1   force =     0.01288903   -0.00808229   -0.00560855
     atom    2 type  1   force =     0.00666469   -0.00062376    0.00092280
     atom    3 type  1   force =     0.00607131    0.01629971    0.02700344
     atom    4 type  1   force =     0.00225073   -0.00533027   -0.00798652
     atom    5 type  1   force =    -0.02787576   -0.00226340   -0.01433117

     Total force =     0.049245     Total SCF correction =     0.000297

     BFGS Geometry Optimization

     number of scf cycles    =   1
     number of bfgs steps    =   0

     energy   new            =    -329.4780720990 Ry

     new trust radius        =       0.0321205121 bohr
     new conv_thr            =       0.0000000100 Ry

ATOMIC_POSITIONS (bohr)
Au      -1.871666973   2.099546714  -1.050137550
Au      -0.785382315   3.773275243   3.602246805
Au       2.988750314   1.024138714   0.539783440
Au       3.879801731   3.513077728   5.731945478
Au       7.666949243   1.122872601   3.304668827

     Writing output data file pwscf.save
     Check: negative starting charge=   -0.006246
     NEW-OLD atomic charge density approx. for the potential
     Check: negative starting charge=   -0.006257

[...]

     energy   old            =    -329.4780720990 Ry
     energy   new            =    -329.4803647558 Ry

     CASE: energy  _new < energy  _old

     WARNING: bfgs curvature condition failed, Theta= 0.895
     new trust radius        =       0.0353325633 bohr
     new conv_thr            =       0.0000000023 Ry

[...]

     new trust radius        =       0.0098340742 bohr
     new conv_thr            =            1.0E-10 Ry

[...]

     WARNING: bfgs curvature condition failed, Theta= 0.687
     new trust radius        =       0.0147511112 bohr
     new conv_thr            =            1.0E-10 Ry

[...]

     WARNING: info= 14 for Hessian
     new trust radius        =       0.0221266669 bohr
     new conv_thr            =            1.0E-10 Ry

[...]

     negative rho (up, down):  1.037E-07 0.000E+00

[...]

     CASE: energy  _new < energy  _old

     WARNING: info= 14 for Hessian
     new trust radius        =       0.0011287000 bohr
     new conv_thr            =            1.0E-10 Ry

[...]

     number of scf cycles    =  47
     number of bfgs steps    =  46

     energy   old            =    -329.4936196015 Ry
     energy   new            =    -329.4936195563 Ry

     CASE: energy  _new > energy  _old

     new trust radius        =       0.0000961455 bohr

     trust_radius < trust_radius_min

     resetting bfgs history

     new conv_thr            =            1.0E-10 Ry

ATOMIC_POSITIONS (bohr)
Au      -1.653424135   2.111309888  -1.100015169
Au      -0.753493752   4.143408130   3.570871714
Au       2.970704206   1.317376961   0.810455477
Au       3.868700157   3.269848041   5.774138887
Au       7.445965525   0.690967981   3.073056091

     Writing output data file pwscf.save
     Check: negative starting charge=   -0.006331
     NEW-OLD atomic charge density approx. for the potential
     Check: negative starting charge=   -0.006331

     Self-consistent Calculation

[...]

     Threshold (ethr) on eigenvalues was too large:
     Diagonalizing with lowered threshold

     Davidson diagonalization with overlap
     ethr =  1.86E-09,  avg # of iterations =  3.0

[...]

     total energy              =    -329.49362495 Ry
     Harris-Foulkes estimate   =    -329.49362494 Ry
     estimated scf accuracy    <          3.4E-10 Ry

     iteration #  7     ecut=    30.00 Ry     beta=0.70
     Davidson diagonalization with overlap
     ethr =  6.13E-13,  avg # of iterations =  2.0

     End of self-consistent calculation

          k = 0.0000 0.0000 0.0000 ( 22119 PWs)   bands (ev):

    -8.5001  -7.7726  -7.6461  -7.2236  -6.8321  -6.8046  -6.6056  -6.4753
    -6.2992  -6.0774  -5.9419  -5.7647  -5.7232  -5.6811  -5.4665  -5.3512
    -5.3080  -5.2531  -5.2020  -5.1755  -5.1725  -5.1204  -5.0052  -4.9333
    -4.8312  -4.7376  -4.4889  -3.7706  -2.4405  -2.2084  -0.5274  -0.1714
     0.4689   0.7685

     the Fermi energy is    -3.7359 ev

!    total energy              =    -329.49362494 Ry
     Harris-Foulkes estimate   =    -329.49362495 Ry
     estimated scf accuracy    <          9.3E-11 Ry

     The total energy is the sum of the following terms:

     one-electron contribution =    -605.80652059 Ry
     hartree contribution      =     324.33982857 Ry
     xc contribution           =     -51.39514618 Ry
     ewald contribution        =       3.37306078 Ry
     smearing contrib. (-TS)   =      -0.00484753 Ry

     convergence has been achieved in   7 iterations

     Forces acting on atoms (Ry/au):

     atom    1 type  1   force =     0.00073056    0.00080902    0.00042009
     atom    2 type  1   force =     0.00026661   -0.00072396    0.00014151
     atom    3 type  1   force =    -0.00050295    0.00021472   -0.00043769
     atom    4 type  1   force =    -0.00040289    0.00057589   -0.00023772
     atom    5 type  1   force =    -0.00009133   -0.00087567    0.00011382

     Total force =     0.001952     Total SCF correction =     0.000038

     bfgs converged in  48 scf cycles and  46 bfgs steps
     (criteria: energy <  1.0E-04, force <  1.0E-03)

     End of BFGS Geometry Optimization

     Final energy   =    -329.4936249406 Ry
Begin final coordinates

ATOMIC_POSITIONS (bohr)
Au      -1.653424135   2.111309888  -1.100015169
Au      -0.753493752   4.143408130   3.570871714
Au       2.970704206   1.317376961   0.810455477
Au       3.868700157   3.269848041   5.774138887
Au       7.445965525   0.690967981   3.073056091
End final coordinates

     Writing output data file pwscf.save

     General routines

     Parallel routines

   This run was terminated on:  19:29:14   3Aug2017

   JOB DONE.