     Program PWSCF v.6.0 (svn rev. 13079) starts on  4Aug2017 at  2:15: 9

     Current dimensions of program PWSCF are:
     Max number of different atomic species (ntypx) = 10
     Max number of k-points (npk) =  40000
     Max angular momentum in pseudopotentials (lmaxx) =  3
     Message from routine iosys:
     pot_extrapolation='second-order' not available, using 'atomic'
     Message from routine iosys:
     wfc_extrapolation='second-order' not available, using 'atomic'

     Subspace diagonalization in iterative solution of the eigenvalue problem:
     a serial algorithm will be used

     bravais-lattice index     =            1
     lattice parameter (alat)  =      20.0000  a.u.
     unit-cell volume          =    8000.0000 (a.u.)^3
     number of atoms/cell      =            5
     number of atomic types    =            1
     number of electrons       =        55.00
     number of Kohn-Sham states=           34
     kinetic-energy cutoff     =      30.0000  Ry
     charge density cutoff     =     120.0000  Ry
     convergence threshold     =      1.0E-08
     mixing beta               =       0.7000
     number of iterations used =            8  plain     mixing
     Exchange-correlation      = BLYP ( 1  3  1  3 0 0)
     nstep                     =           50

     celldm(1)=  20.000000  celldm(2)=   0.000000  celldm(3)=   0.000000
     celldm(4)=   0.000000  celldm(5)=   0.000000  celldm(6)=   0.000000

     crystal axes: (cart. coord. in units of alat)
               a(1) = (   1.000000   0.000000   0.000000 )
               a(2) = (   0.000000   1.000000   0.000000 )
               a(3) = (   0.000000   0.000000   1.000000 )

     reciprocal axes: (cart. coord. in units 2 pi/alat)
               b(1) = (  1.000000  0.000000  0.000000 )
               b(2) = (  0.000000  1.000000  0.000000 )
               b(3) = (  0.000000  0.000000  1.000000 )

     PseudoPot. # 1 for Au read from file:
     ./Au.blyp-d-hgh.UPF
     MD5 check sum: c10d8bae01f806c36a1643a1c69a8479
     Pseudo is Norm-conserving, Zval = 11.0
     Generated in analytical, separable form
     Using radial grid of 1279 points,  6 beta functions with:
                l(1) =   0
                l(2) =   0
                l(3) =   1
                l(4) =   1
                l(5) =   2
                l(6) =   2

     atomic species   valence    mass     pseudopotential
        Au            11.00    28.08600     Au( 1.00)

     No symmetry found

   Cartesian axes

     site n.     atom                  positions (alat units)
         1           Au  tau(   1) = (  -0.1009708   0.0477079  -0.0154721  )
         2           Au  tau(   2) = (   0.0157466   0.1281345   0.2034680  )
         3           Au  tau(   3) = (   0.1444306   0.0379869   0.0045264  )
         4           Au  tau(   4) = (   0.2332960   0.2412149   0.2887635  )
         5           Au  tau(   5) = (   0.3239252   0.0450624   0.1316536  )

     number of k points=     1  Marzari-Vanderbilt smearing, width (Ry)=  0.0250
                       cart. coord. in units 2pi/alat
        k(    1) = (   0.0000000   0.0000000   0.0000000), wk =   2.0000000

     Initial potential from superposition of free atoms
     Check: negative starting charge=   -0.006293

     starting charge   54.99940, renormalised to   55.00000

     negative rho (up, down):  6.293E-03 0.000E+00
     Starting wfc are   45 randomized atomic wfcs

     Self-consistent Calculation

     iteration #  1     ecut=    30.00 Ry     beta=0.70
     Davidson diagonalization with overlap
     ethr =  1.00E-02,  avg # of iterations =  4.0

     Threshold (ethr) on eigenvalues was too large:
     Diagonalizing with lowered threshold

     Davidson diagonalization with overlap
     ethr =  5.05E-04,  avg # of iterations =  2.0

     negative rho (up, down):  8.025E-04 0.000E+00

     total energy              =    -329.28725907 Ry
     Harris-Foulkes estimate   =    -329.47904430 Ry
     estimated scf accuracy    <       0.32297673 Ry

[...]

     End of self-consistent calculation

          k = 0.0000 0.0000 0.0000 ( 22119 PWs)   bands (ev):

    -8.8902  -8.1705  -7.9542  -7.4002  -7.2738  -7.0775  -6.6932  -6.5088
    -6.4040  -6.1127  -5.8774  -5.8054  -5.7805  -5.5566  -5.5384  -5.5019
    -5.3632  -5.3374  -5.2356  -5.1647  -5.1157  -5.0292  -4.9028  -4.7912
    -4.5736  -4.4261  -4.1836  -3.9118  -2.5063  -1.8926  -0.4521  -0.2607
     0.3748   0.7123

     the Fermi energy is    -3.9069 ev

!    total energy              =    -329.41433104 Ry
     Harris-Foulkes estimate   =    -329.41433106 Ry
     estimated scf accuracy    <          3.1E-09 Ry

     The total energy is the sum of the following terms:

     one-electron contribution =    -617.89807140 Ry
     hartree contribution      =     330.35669711 Ry
     xc contribution           =     -51.50223697 Ry
     ewald contribution        =       9.62072224 Ry
     smearing contrib. (-TS)   =       0.00855798 Ry

     convergence has been achieved in  13 iterations

     Forces acting on atoms (Ry/au):

     atom    1 type  1   force =    -0.02870551    0.00083040    0.00120002
     atom    2 type  1   force =    -0.00305639    0.00938412   -0.00143917
     atom    3 type  1   force =    -0.14955102   -0.00977200   -0.12596480
     atom    4 type  1   force =    -0.00101785   -0.01915451   -0.00741509
     atom    5 type  1   force =     0.18233077    0.01871199    0.13361905

     Total force =     0.301870     Total SCF correction =     0.000214

     BFGS Geometry Optimization

     number of scf cycles    =   1
     number of bfgs steps    =   0

     energy   new            =    -329.4143310447 Ry

     new trust radius        =       0.2268230581 bohr
     new conv_thr            =       0.0000000100 Ry

ATOMIC_POSITIONS (bohr)
Au      -2.048121512   0.954987400  -0.308241984
Au       0.311874609   2.572073122   4.067920830
Au       2.739061981   0.749966000  -0.035436803
Au       4.664902147   4.805143491   5.767854909
Au       6.660835774   0.919960987   2.766691048

     Writing output data file pwscf.save
     Check: negative starting charge=   -0.006293
     NEW-OLD atomic charge density approx. for the potential
     Check: negative starting charge=   -0.006334

[...]

     energy   old            =    -329.4143310447 Ry
     energy   new            =    -329.4636534689 Ry

     CASE: energy  _new < energy  _old

[...]

     Self-consistent Calculation

[...]

     total energy              =    -329.49333464 Ry
     Harris-Foulkes estimate   =    -329.49333463 Ry
     estimated scf accuracy    <          1.4E-10 Ry

     iteration # 11     ecut=    30.00 Ry     beta=0.70
     Davidson diagonalization with overlap
     ethr =  2.55E-13,  avg # of iterations =  2.0

     End of self-consistent calculation

          k = 0.0000 0.0000 0.0000 ( 22119 PWs)   bands (ev):

    -8.4778  -7.7741  -7.6391  -7.2464  -6.8735  -6.7956  -6.6454  -6.4674
    -6.3177  -6.0480  -5.9768  -5.7596  -5.7203  -5.6731  -5.4424  -5.3587
    -5.3112  -5.2316  -5.1893  -5.1835  -5.1664  -5.1215  -4.9975  -4.9086
    -4.8478  -4.7270  -4.4675  -3.7488  -2.4020  -2.2127  -0.5181  -0.1988
     0.3907   0.7298

     the Fermi energy is    -3.7138 ev

!    total energy              =    -329.49333467 Ry
     Harris-Foulkes estimate   =    -329.49333464 Ry
     estimated scf accuracy    <          1.2E-11 Ry

     The total energy is the sum of the following terms:

     one-electron contribution =    -603.94379370 Ry
     hartree contribution      =     323.41417906 Ry
     xc contribution           =     -51.39949625 Ry
     ewald contribution        =       2.44071265 Ry
     smearing contrib. (-TS)   =      -0.00493643 Ry

     convergence has been achieved in  11 iterations

     Forces acting on atoms (Ry/au):

     atom    1 type  1   force =    -0.00041463    0.00100992    0.00005622
     atom    2 type  1   force =    -0.00132479   -0.00085724   -0.00292976
     atom    3 type  1   force =     0.00108465   -0.00100636    0.00142542
     atom    4 type  1   force =     0.00058653    0.00173708    0.00205888
     atom    5 type  1   force =     0.00006824   -0.00088341   -0.00061076

     Total force =     0.005025     Total SCF correction =     0.000015

     number of scf cycles    =  50
     number of bfgs steps    =  49

     energy   old            =    -329.4932593655 Ry
     energy   new            =    -329.4933346695 Ry

     CASE: energy  _new < energy  _old

     new trust radius        =       0.0201156395 bohr
     new conv_thr            =            1.0E-10 Ry

ATOMIC_POSITIONS (bohr)
Au      -2.034438001   1.127704818  -0.254798978
Au       0.949178348   3.015279295   3.365394314
Au       2.909049099  -0.268431857  -0.602278856
Au       4.363082368   4.548484082   6.770477835
Au       6.141681187   1.579094662   2.979993685

     Writing output data file pwscf.save
     Check: negative starting charge=   -0.006118
     NEW-OLD atomic charge density approx. for the potential
     Check: negative starting charge=   -0.006113

     negative rho (up, down):  6.968E-05 0.000E+00

     Writing output data file pwscf.save

     General routines

     Parallel routines

   This run was terminated on:   2:17:27   4Aug2017

   JOB DONE.