     Program PWSCF v.6.0 (svn rev. 13079) starts on  4Aug2017 at  6:57:37

     Current dimensions of program PWSCF are:
     Max number of different atomic species (ntypx) = 10
     Max number of k-points (npk) =  40000
     Max angular momentum in pseudopotentials (lmaxx) =  3
     Message from routine iosys:
     pot_extrapolation='second-order' not available, using 'atomic'
     Message from routine iosys:
     wfc_extrapolation='second-order' not available, using 'atomic'

     Subspace diagonalization in iterative solution of the eigenvalue problem:
     a serial algorithm will be used

     bravais-lattice index     =            1
     lattice parameter (alat)  =      20.0000  a.u.
     unit-cell volume          =    8000.0000 (a.u.)^3
     number of atoms/cell      =            5
     number of atomic types    =            1
     number of electrons       =        55.00
     number of Kohn-Sham states=           34
     kinetic-energy cutoff     =      30.0000  Ry
     charge density cutoff     =     120.0000  Ry
     convergence threshold     =      1.0E-08
     mixing beta               =       0.7000
     number of iterations used =            8  plain     mixing
     Exchange-correlation      = BLYP ( 1  3  1  3 0 0)
     nstep                     =           50

     celldm(1)=  20.000000  celldm(2)=   0.000000  celldm(3)=   0.000000
     celldm(4)=   0.000000  celldm(5)=   0.000000  celldm(6)=   0.000000

     crystal axes: (cart. coord. in units of alat)
               a(1) = (   1.000000   0.000000   0.000000 )
               a(2) = (   0.000000   1.000000   0.000000 )
               a(3) = (   0.000000   0.000000   1.000000 )

     reciprocal axes: (cart. coord. in units 2 pi/alat)
               b(1) = (  1.000000  0.000000  0.000000 )
               b(2) = (  0.000000  1.000000  0.000000 )
               b(3) = (  0.000000  0.000000  1.000000 )

     PseudoPot. # 1 for Au read from file:
     ./Au.blyp-d-hgh.UPF
     MD5 check sum: c10d8bae01f806c36a1643a1c69a8479
     Pseudo is Norm-conserving, Zval = 11.0
     Generated in analytical, separable form
     Using radial grid of 1279 points,  6 beta functions with:
                l(1) =   0
                l(2) =   0
                l(3) =   1
                l(4) =   1
                l(5) =   2
                l(6) =   2

     atomic species   valence    mass     pseudopotential
        Au            11.00    28.08600     Au( 1.00)

     No symmetry found

   Cartesian axes

     site n.     atom                  positions (alat units)
         1           Au  tau(   1) = (  -0.0836799   0.0090876   0.0133043  )
         2           Au  tau(   2) = (  -0.0198530   0.1763151   0.2029059  )
         3           Au  tau(   3) = (   0.1127709   0.1796512  -0.0095470  )
         4           Au  tau(   4) = (   0.2419281   0.2489365   0.2286133  )
         5           Au  tau(   5) = (   0.3094630  -0.0001038   0.2782321  )

     number of k points=     1  Marzari-Vanderbilt smearing, width (Ry)=  0.0250
                       cart. coord. in units 2pi/alat
        k(    1) = (   0.0000000   0.0000000   0.0000000), wk =   2.0000000

     Initial potential from superposition of free atoms
     Check: negative starting charge=   -0.005578

     starting charge   54.99940, renormalised to   55.00000

     negative rho (up, down):  5.578E-03 0.000E+00
     Starting wfc are   45 randomized atomic wfcs

     Self-consistent Calculation

     iteration #  1     ecut=    30.00 Ry     beta=0.70
     Davidson diagonalization with overlap
     ethr =  1.00E-02,  avg # of iterations =  3.0

     Threshold (ethr) on eigenvalues was too large:
     Diagonalizing with lowered threshold

     Davidson diagonalization with overlap
     ethr =  4.24E-04,  avg # of iterations =  3.0

     negative rho (up, down):  6.461E-04 0.000E+00

     total energy              =    -329.29267703 Ry
     Harris-Foulkes estimate   =    -329.46807960 Ry
     estimated scf accuracy    <       0.28304800 Ry

[...]

     End of self-consistent calculation

          k = 0.0000 0.0000 0.0000 ( 22119 PWs)   bands (ev):

    -8.2367  -7.6350  -7.0961  -6.9531  -6.8299  -6.7713  -6.5423  -6.3823
    -6.0790  -5.9737  -5.7904  -5.7246  -5.6247  -5.4545  -5.3963  -5.3450
    -5.2754  -5.2116  -5.1248  -5.0506  -4.8794  -4.8618  -4.8128  -4.8096
    -4.6897  -4.6690  -4.4420  -3.4458  -3.2140  -2.3299  -0.4048   0.0057
     0.2148   0.2901

     the Fermi energy is    -3.4405 ev

!    total energy              =    -329.40740297 Ry
     Harris-Foulkes estimate   =    -329.40740297 Ry
     estimated scf accuracy    <          6.9E-09 Ry

     The total energy is the sum of the following terms:

     one-electron contribution =    -575.40920580 Ry
     hartree contribution      =     309.38086204 Ry
     xc contribution           =     -51.33035586 Ry
     ewald contribution        =     -12.03631708 Ry
     smearing contrib. (-TS)   =      -0.01238628 Ry

     convergence has been achieved in  13 iterations

     Forces acting on atoms (Ry/au):

     atom    1 type  1   force =    -0.00010984    0.00765020    0.00026938
     atom    2 type  1   force =     0.00353865   -0.00243502    0.01016940
     atom    3 type  1   force =     0.00951920   -0.00100447   -0.00173007
     atom    4 type  1   force =    -0.00951091   -0.02917960   -0.00639399
     atom    5 type  1   force =    -0.00343710    0.02496890   -0.00231472

     Total force =     0.043572     Total SCF correction =     0.000306

     BFGS Geometry Optimization

     number of scf cycles    =   1
     number of bfgs steps    =   0

     energy   new            =    -329.4074029733 Ry

     new trust radius        =       0.0313494776 bohr
     new conv_thr            =       0.0000000100 Ry

ATOMIC_POSITIONS (bohr)
Au      -1.673706837   0.189402198   0.266354376
Au      -0.393521349   3.523866979   4.068288402
Au       2.264936197   3.592018528  -0.192671065
Au       4.829050089   4.949549398   4.565873006
Au       6.185822901   0.022893897   5.562327282

     Writing output data file pwscf.save
     Check: negative starting charge=   -0.005578
     NEW-OLD atomic charge density approx. for the potential
     Check: negative starting charge=   -0.005596

[...]

     energy   old            =    -329.4074029733 Ry
     energy   new            =    -329.4091842930 Ry

     CASE: energy  _new < energy  _old

     WARNING: bfgs curvature condition failed, Theta= 0.910
     new trust radius        =       0.0344844254 bohr
     new conv_thr            =       0.0000000018 Ry

[...]

     WARNING: info=  5 for Hessian
     uphill step: resetting bfgs history

[...]

     Threshold (ethr) on eigenvalues was too large:
     Diagonalizing with lowered threshold

     Davidson diagonalization with overlap
     ethr =  8.65E-08,  avg # of iterations =  1.0

[...]

     WARNING: bfgs curvature condition failed, Theta= 0.870
     new trust radius        =       0.2802396189 bohr
     new conv_thr            =       0.0000000021 Ry

[...]

     CASE: energy  _new > energy  _old

[...]

     Self-consistent Calculation

[...]

     total energy              =    -329.45396438 Ry
     Harris-Foulkes estimate   =    -329.45396439 Ry
     estimated scf accuracy    <          3.7E-10 Ry

     iteration # 10     ecut=    30.00 Ry     beta=0.70
     Davidson diagonalization with overlap
     ethr =  6.75E-13,  avg # of iterations =  3.0

     End of self-consistent calculation

          k = 0.0000 0.0000 0.0000 ( 22119 PWs)   bands (ev):

    -8.3544  -7.9232  -7.6472  -7.4422  -6.8414  -6.7599  -6.7052  -6.4319
    -6.3404  -5.9379  -5.8899  -5.7920  -5.7099  -5.6004  -5.4631  -5.4529
    -5.3725  -5.3412  -5.2591  -5.2034  -5.0720  -4.9389  -4.9016  -4.8906
    -4.7677  -4.6665  -4.5643  -3.7464  -3.0866  -1.8684  -0.5038  -0.1338
     0.1633   0.6667

     the Fermi energy is    -3.7059 ev

!    total energy              =    -329.45396439 Ry
     Harris-Foulkes estimate   =    -329.45396438 Ry
     estimated scf accuracy    <          1.1E-10 Ry

     The total energy is the sum of the following terms:

     one-electron contribution =    -575.59098087 Ry
     hartree contribution      =     309.21881076 Ry
     xc contribution           =     -51.36433796 Ry
     ewald contribution        =     -11.71108542 Ry
     smearing contrib. (-TS)   =      -0.00637090 Ry

     convergence has been achieved in  10 iterations

     Forces acting on atoms (Ry/au):

     atom    1 type  1   force =     0.00155240   -0.00055091    0.00059794
     atom    2 type  1   force =     0.00163390    0.00051789   -0.00045198
     atom    3 type  1   force =    -0.00100330    0.00074920   -0.00096443
     atom    4 type  1   force =    -0.00237757   -0.00146940    0.00219489
     atom    5 type  1   force =     0.00019457    0.00075321   -0.00137643

     Total force =     0.004883     Total SCF correction =     0.000042

     number of scf cycles    =  50
     number of bfgs steps    =  48

     energy   old            =    -329.4538045563 Ry
     energy   new            =    -329.4539643894 Ry

     CASE: energy  _new < energy  _old

     new trust radius        =       0.0209170063 bohr
     new conv_thr            =       0.0000000002 Ry

ATOMIC_POSITIONS (bohr)
Au      -2.889525538   1.996712707  -0.001028403
Au       0.397636881   1.131837197   3.649135109
Au       1.874019872   4.433734308  -0.480317033
Au       4.974023958   3.315889527   3.483788356
Au       6.856425828   1.399557260   7.618593971

     Writing output data file pwscf.save
     Check: negative starting charge=   -0.005853
     NEW-OLD atomic charge density approx. for the potential
     Check: negative starting charge=   -0.005857

     negative rho (up, down):  7.801E-05 0.000E+00

     Writing output data file pwscf.save

     General routines

     Parallel routines

   This run was terminated on:   7: 0: 1   4Aug2017

   JOB DONE.