     Program PWSCF v.6.0 (svn rev. 13079) starts on  4Aug2017 at  2:38:57

     Current dimensions of program PWSCF are:
     Max number of different atomic species (ntypx) = 10
     Max number of k-points (npk) =  40000
     Max angular momentum in pseudopotentials (lmaxx) =  3
     Message from routine iosys:
     pot_extrapolation='second-order' not available, using 'atomic'
     Message from routine iosys:
     wfc_extrapolation='second-order' not available, using 'atomic'

     Subspace diagonalization in iterative solution of the eigenvalue problem:
     a serial algorithm will be used

     bravais-lattice index     =            1
     lattice parameter (alat)  =      20.0000  a.u.
     unit-cell volume          =    8000.0000 (a.u.)^3
     number of atoms/cell      =            5
     number of atomic types    =            1
     number of electrons       =        55.00
     number of Kohn-Sham states=           34
     kinetic-energy cutoff     =      30.0000  Ry
     charge density cutoff     =     120.0000  Ry
     convergence threshold     =      1.0E-08
     mixing beta               =       0.7000
     number of iterations used =            8  plain     mixing
     Exchange-correlation      = BLYP ( 1  3  1  3 0 0)
     nstep                     =           50

     celldm(1)=  20.000000  celldm(2)=   0.000000  celldm(3)=   0.000000
     celldm(4)=   0.000000  celldm(5)=   0.000000  celldm(6)=   0.000000

     crystal axes: (cart. coord. in units of alat)
               a(1) = (   1.000000   0.000000   0.000000 )
               a(2) = (   0.000000   1.000000   0.000000 )
               a(3) = (   0.000000   0.000000   1.000000 )

     reciprocal axes: (cart. coord. in units 2 pi/alat)
               b(1) = (  1.000000  0.000000  0.000000 )
               b(2) = (  0.000000  1.000000  0.000000 )
               b(3) = (  0.000000  0.000000  1.000000 )

     PseudoPot. # 1 for Au read from file:
     ./Au.blyp-d-hgh.UPF
     MD5 check sum: c10d8bae01f806c36a1643a1c69a8479
     Pseudo is Norm-conserving, Zval = 11.0
     Generated in analytical, separable form
     Using radial grid of 1279 points,  6 beta functions with:
                l(1) =   0
                l(2) =   0
                l(3) =   1
                l(4) =   1
                l(5) =   2
                l(6) =   2

     atomic species   valence    mass     pseudopotential
        Au            11.00    28.08600     Au( 1.00)

     No symmetry found

   Cartesian axes

     site n.     atom                  positions (alat units)
         1           Au  tau(   1) = (  -0.0972643   0.0502092  -0.0265659  )
         2           Au  tau(   2) = (  -0.0014363   0.1406513   0.1985234  )
         3           Au  tau(   3) = (   0.1494857   0.0878487  -0.0014634  )
         4           Au  tau(   4) = (   0.2214765   0.2368032   0.3002500  )
         5           Au  tau(   5) = (   0.3257188   0.1463218   0.1300348  )

     number of k points=     1  Marzari-Vanderbilt smearing, width (Ry)=  0.0250
                       cart. coord. in units 2pi/alat
        k(    1) = (   0.0000000   0.0000000   0.0000000), wk =   2.0000000

     Initial potential from superposition of free atoms
     Check: negative starting charge=   -0.006461

     starting charge   54.99940, renormalised to   55.00000

     negative rho (up, down):  6.461E-03 0.000E+00
     Starting wfc are   45 randomized atomic wfcs

     Self-consistent Calculation

     iteration #  1     ecut=    30.00 Ry     beta=0.70
     Davidson diagonalization with overlap
     ethr =  1.00E-02,  avg # of iterations =  4.0

     Threshold (ethr) on eigenvalues was too large:
     Diagonalizing with lowered threshold

     Davidson diagonalization with overlap
     ethr =  6.64E-04,  avg # of iterations =  2.0

     negative rho (up, down):  7.963E-04 0.000E+00

     total energy              =    -329.19583150 Ry
     Harris-Foulkes estimate   =    -329.46478021 Ry
     estimated scf accuracy    <       0.41227953 Ry

[...]

     End of self-consistent calculation

          k = 0.0000 0.0000 0.0000 ( 22119 PWs)   bands (ev):

    -8.9363  -8.6887  -8.2385  -7.8551  -7.4503  -7.2888  -7.1007  -6.6631
    -6.4514  -6.3040  -6.1969  -5.9462  -5.7028  -5.6370  -5.5658  -5.5390
    -5.3136  -5.2570  -5.1592  -5.0450  -5.0119  -4.9560  -4.9476  -4.7576
    -4.6675  -4.5734  -4.1014  -3.5744  -2.6280  -1.7527  -0.5831  -0.2483
     0.3104   0.7785

     the Fermi energy is    -3.5650 ev

!    total energy              =    -329.39092621 Ry
     Harris-Foulkes estimate   =    -329.39092622 Ry
     estimated scf accuracy    <          5.4E-09 Ry

     The total energy is the sum of the following terms:

     one-electron contribution =    -629.60293292 Ry
     hartree contribution      =     336.07551336 Ry
     xc contribution           =     -51.57315895 Ry
     ewald contribution        =      15.70967089 Ry
     smearing contrib. (-TS)   =      -0.00001860 Ry

     convergence has been achieved in  12 iterations

     Forces acting on atoms (Ry/au):

     atom    1 type  1   force =    -0.01033703   -0.00003931    0.00349561
     atom    2 type  1   force =    -0.01040408    0.00341782    0.00759558
     atom    3 type  1   force =    -0.09054566   -0.03885680   -0.09209733
     atom    4 type  1   force =    -0.11293800    0.09051719    0.17461522
     atom    5 type  1   force =     0.22422477   -0.05503890   -0.09360907

     Total force =     0.363310     Total SCF correction =     0.000372

     BFGS Geometry Optimization

     number of scf cycles    =   1
     number of bfgs steps    =   0

     energy   new            =    -329.3909262128 Ry

     new trust radius        =       0.2491358804 bohr
     new conv_thr            =       0.0000000100 Ry

ATOMIC_POSITIONS (bohr)
Au      -1.955623031   1.004143693  -0.527822388
Au      -0.039130078   2.816442817   3.978063576
Au       2.899168338   1.718117202  -0.121365334
Au       4.316592000   4.826581186   6.179615217
Au       6.738599772   2.871396102   2.507087928

     Writing output data file pwscf.save
     Check: negative starting charge=   -0.006461
     NEW-OLD atomic charge density approx. for the potential
     Check: negative starting charge=   -0.006465

[...]

     iteration #  1     ecut=    30.00 Ry     beta=0.70
     Davidson diagonalization with overlap
     c_bands:  1 eigenvalues not converged
     ethr =  1.00E-06,  avg # of iterations = 20.0

[...]

     energy   old            =    -329.3909262128 Ry
     energy   new            =    -329.4669675014 Ry

     CASE: energy  _new < energy  _old

[...]

     WARNING: bfgs curvature condition failed, Theta= 0.825
     new trust radius        =       0.0657312442 bohr
     new conv_thr            =       0.0000000001 Ry

[...]

     iteration #  1     ecut=    30.00 Ry     beta=0.70
     Davidson diagonalization with overlap
     c_bands:  1 eigenvalues not converged
     ethr =  1.00E-06,  avg # of iterations = 20.0

[...]

     CASE: energy  _new > energy  _old

[...]

     WARNING: info=  7 for Hessian
     uphill step: resetting bfgs history

[...]

     Threshold (ethr) on eigenvalues was too large:
     Diagonalizing with lowered threshold

     Davidson diagonalization with overlap
     ethr =  8.26E-08,  avg # of iterations =  1.0

[...]

     WARNING: bfgs curvature condition failed, Theta= 0.841
     new trust radius        =       0.0686884917 bohr
     new conv_thr            =       0.0000000002 Ry

[...]

     CASE: energy  _new > energy  _old

[...]

     Self-consistent Calculation

[...]

     total energy              =    -329.49301399 Ry
     Harris-Foulkes estimate   =    -329.49301399 Ry
     estimated scf accuracy    <          2.9E-10 Ry

     iteration # 11     ecut=    30.00 Ry     beta=0.70
     Davidson diagonalization with overlap
     ethr =  5.31E-13,  avg # of iterations =  3.0

     End of self-consistent calculation

          k = 0.0000 0.0000 0.0000 ( 22119 PWs)   bands (ev):

    -8.4505  -7.7323  -7.6274  -7.2166  -6.8654  -6.7753  -6.5932  -6.4488
    -6.3095  -6.0434  -5.9476  -5.7538  -5.7118  -5.6694  -5.4360  -5.3621
    -5.3136  -5.2369  -5.1979  -5.1820  -5.1647  -5.1264  -4.9997  -4.9156
    -4.8607  -4.7311  -4.4817  -3.7600  -2.4086  -2.2465  -0.5283  -0.2294
     0.3904   0.7559

     the Fermi energy is    -3.7248 ev

!    total energy              =    -329.49301398 Ry
     Harris-Foulkes estimate   =    -329.49301399 Ry
     estimated scf accuracy    <          1.5E-10 Ry

     The total energy is the sum of the following terms:

     one-electron contribution =    -602.82932721 Ry
     hartree contribution      =     322.86683178 Ry
     xc contribution           =     -51.39189941 Ry
     ewald contribution        =       1.86635853 Ry
     smearing contrib. (-TS)   =      -0.00497767 Ry

     convergence has been achieved in  11 iterations

     Forces acting on atoms (Ry/au):

     atom    1 type  1   force =     0.00247305    0.00001740    0.00113597
     atom    2 type  1   force =     0.00088919   -0.00103617   -0.00265059
     atom    3 type  1   force =    -0.00101072    0.00036025    0.00151708
     atom    4 type  1   force =    -0.00139728   -0.00095582   -0.00038453
     atom    5 type  1   force =    -0.00095424    0.00161434    0.00038207

     Total force =     0.005141     Total SCF correction =     0.000049

     number of scf cycles    =  50
     number of bfgs steps    =  47

     energy   old            =    -329.4929565103 Ry
     energy   new            =    -329.4930139776 Ry

     CASE: energy  _new < energy  _old

     new trust radius        =       0.0048292017 bohr
     new conv_thr            =            1.0E-10 Ry

ATOMIC_POSITIONS (bohr)
Au      -2.131239822   1.159336417   0.026891344
Au       0.832623756   3.142619754   3.621284843
Au       2.914585681   0.963055283  -1.024100864
Au       4.235631332   5.036255945   6.866738863
Au       6.108006053   2.935413601   2.524764814

     Writing output data file pwscf.save
     Check: negative starting charge=   -0.006278
     NEW-OLD atomic charge density approx. for the potential
     Check: negative starting charge=   -0.006280

     negative rho (up, down):  8.613E-08 0.000E+00

     Writing output data file pwscf.save

     General routines

     Parallel routines

   This run was terminated on:   2:41:14   4Aug2017

   JOB DONE.