     Program PWSCF v.6.0 (svn rev. 13079) starts on  3Aug2017 at 17:30:24

     Current dimensions of program PWSCF are:
     Max number of different atomic species (ntypx) = 10
     Max number of k-points (npk) =  40000
     Max angular momentum in pseudopotentials (lmaxx) =  3
     Message from routine iosys:
     pot_extrapolation='second-order' not available, using 'atomic'
     Message from routine iosys:
     wfc_extrapolation='second-order' not available, using 'atomic'

     Subspace diagonalization in iterative solution of the eigenvalue problem:
     a serial algorithm will be used

     bravais-lattice index     =            1
     lattice parameter (alat)  =      20.0000  a.u.
     unit-cell volume          =    8000.0000 (a.u.)^3
     number of atoms/cell      =            5
     number of atomic types    =            1
     number of electrons       =        55.00
     number of Kohn-Sham states=           34
     kinetic-energy cutoff     =      30.0000  Ry
     charge density cutoff     =     120.0000  Ry
     convergence threshold     =      1.0E-08
     mixing beta               =       0.7000
     number of iterations used =            8  plain     mixing
     Exchange-correlation      = BLYP ( 1  3  1  3 0 0)
     nstep                     =           50

     celldm(1)=  20.000000  celldm(2)=   0.000000  celldm(3)=   0.000000
     celldm(4)=   0.000000  celldm(5)=   0.000000  celldm(6)=   0.000000

     crystal axes: (cart. coord. in units of alat)
               a(1) = (   1.000000   0.000000   0.000000 )
               a(2) = (   0.000000   1.000000   0.000000 )
               a(3) = (   0.000000   0.000000   1.000000 )

     reciprocal axes: (cart. coord. in units 2 pi/alat)
               b(1) = (  1.000000  0.000000  0.000000 )
               b(2) = (  0.000000  1.000000  0.000000 )
               b(3) = (  0.000000  0.000000  1.000000 )

     PseudoPot. # 1 for Au read from file:
     ./Au.blyp-d-hgh.UPF
     MD5 check sum: c10d8bae01f806c36a1643a1c69a8479
     Pseudo is Norm-conserving, Zval = 11.0
     Generated in analytical, separable form
     Using radial grid of 1279 points,  6 beta functions with:
                l(1) =   0
                l(2) =   0
                l(3) =   1
                l(4) =   1
                l(5) =   2
                l(6) =   2

     atomic species   valence    mass     pseudopotential
        Au            11.00    28.08600     Au( 1.00)

     No symmetry found

   Cartesian axes

     site n.     atom                  positions (alat units)
         1           Au  tau(   1) = (  -0.0797757   0.1297516  -0.0436178  )
         2           Au  tau(   2) = (  -0.0430755   0.1946268   0.1917879  )
         3           Au  tau(   3) = (   0.1507761   0.0755380   0.0292235  )
         4           Au  tau(   4) = (   0.2098250   0.1971825   0.2760243  )
         5           Au  tau(   5) = (   0.3687965   0.0566430   0.1493344  )

     number of k points=     1  Marzari-Vanderbilt smearing, width (Ry)=  0.0250
                       cart. coord. in units 2pi/alat
        k(    1) = (   0.0000000   0.0000000   0.0000000), wk =   2.0000000

     Initial potential from superposition of free atoms
     Check: negative starting charge=   -0.006343

     starting charge   54.99940, renormalised to   55.00000

     negative rho (up, down):  6.343E-03 0.000E+00
     Starting wfc are   45 randomized atomic wfcs

     Self-consistent Calculation

     iteration #  1     ecut=    30.00 Ry     beta=0.70
     Davidson diagonalization with overlap
     ethr =  1.00E-02,  avg # of iterations =  3.0

     Threshold (ethr) on eigenvalues was too large:
     Diagonalizing with lowered threshold

     Davidson diagonalization with overlap
     ethr =  4.30E-04,  avg # of iterations =  6.0

     negative rho (up, down):  8.627E-04 0.000E+00

     total energy              =    -329.36581907 Ry
     Harris-Foulkes estimate   =    -329.54364586 Ry
     estimated scf accuracy    <       0.29274807 Ry

[...]

     End of self-consistent calculation

          k = 0.0000 0.0000 0.0000 ( 22119 PWs)   bands (ev):

    -8.5427  -7.9109  -7.6769  -7.1366  -6.9761  -6.9571  -6.8552  -6.5576
    -6.2095  -6.1975  -6.0521  -5.7779  -5.7545  -5.6829  -5.3920  -5.3340
    -5.2936  -5.2729  -5.2094  -5.1679  -5.1486  -5.1244  -4.9636  -4.9259
    -4.8956  -4.6177  -4.4292  -3.6963  -2.4236  -2.2006  -0.5135  -0.1788
     0.5014   0.6934

     the Fermi energy is    -3.6606 ev

!    total energy              =    -329.48336258 Ry
     Harris-Foulkes estimate   =    -329.48336269 Ry
     estimated scf accuracy    <          7.0E-09 Ry

     The total energy is the sum of the following terms:

     one-electron contribution =    -611.73131616 Ry
     hartree contribution      =     327.27968398 Ry
     xc contribution           =     -51.42917294 Ry
     ewald contribution        =       6.40250262 Ry
     smearing contrib. (-TS)   =      -0.00506007 Ry

     convergence has been achieved in  11 iterations

     Forces acting on atoms (Ry/au):

     atom    1 type  1   force =    -0.01948596   -0.00618692   -0.02973908
     atom    2 type  1   force =     0.01616457    0.00854731    0.02380724
     atom    3 type  1   force =     0.00481764    0.00246014    0.00715909
     atom    4 type  1   force =    -0.02586097    0.01078939    0.00701089
     atom    5 type  1   force =     0.02436472   -0.01560992   -0.00823814

     Total force =     0.063432     Total SCF correction =     0.000378

     BFGS Geometry Optimization

     number of scf cycles    =   1
     number of bfgs steps    =   0

     energy   new            =    -329.4833625777 Ry

     new trust radius        =       0.0360886901 bohr
     new conv_thr            =       0.0000000100 Ry

ATOMIC_POSITIONS (bohr)
Au      -1.614999960   2.588846077  -0.902096080
Au      -0.845345430   3.901082310   3.859564245
Au       3.020340644   1.513220138   0.591629094
Au       4.170638027   3.954438390   5.527496887
Au       7.400294719   1.117250084   2.978449855

     Writing output data file pwscf.save
     Check: negative starting charge=   -0.006343
     NEW-OLD atomic charge density approx. for the potential
     Check: negative starting charge=   -0.006311

[...]

     energy   old            =    -329.4833625777 Ry
     energy   new            =    -329.4867098922 Ry

     CASE: energy  _new < energy  _old

[...]

     Threshold (ethr) on eigenvalues was too large:
     Diagonalizing with lowered threshold

     Davidson diagonalization with overlap
     ethr =  4.78E-08,  avg # of iterations =  1.0

[...]

     CASE: energy  _new > energy  _old

[...]

     CASE: energy  _new < energy  _old

[...]

     number of scf cycles    =  37
     number of bfgs steps    =  35

     energy   old            =    -329.4935631520 Ry
     energy   new            =    -329.4935609190 Ry

     CASE: energy  _new > energy  _old

     new trust radius        =       0.0181230722 bohr
     new conv_thr            =            1.0E-10 Ry

ATOMIC_POSITIONS (bohr)
Au      -1.600973661   2.346985456  -1.113780754
Au      -0.695856609   4.413419679   3.534447563
Au       3.031722863   1.616466397   0.781386177
Au       3.913625669   3.653708729   5.755675974
Au       7.482409739   1.044256740   3.097315040

     Writing output data file pwscf.save
     Check: negative starting charge=   -0.006327
     NEW-OLD atomic charge density approx. for the potential
     Check: negative starting charge=   -0.006322

[...]

     Self-consistent Calculation

[...]

     negative rho (up, down):  1.844E-07 0.000E+00

[...]

     total energy              =    -329.49357462 Ry
     Harris-Foulkes estimate   =    -329.49357460 Ry
     estimated scf accuracy    <          1.7E-10 Ry

     iteration # 10     ecut=    30.00 Ry     beta=0.70
     Davidson diagonalization with overlap
     ethr =  3.11E-13,  avg # of iterations =  2.0

     End of self-consistent calculation

          k = 0.0000 0.0000 0.0000 ( 22119 PWs)   bands (ev):

    -8.5033  -7.7782  -7.6561  -7.2364  -6.8532  -6.8103  -6.6141  -6.4773
    -6.3118  -6.0720  -5.9508  -5.7673  -5.7247  -5.6833  -5.4586  -5.3566
    -5.3119  -5.2460  -5.2019  -5.1783  -5.1706  -5.1216  -5.0039  -4.9239
    -4.8323  -4.7369  -4.4780  -3.7730  -2.4378  -2.1973  -0.5294  -0.1748
     0.4656   0.7845

     the Fermi energy is    -3.7398 ev

!    total energy              =    -329.49357463 Ry
     Harris-Foulkes estimate   =    -329.49357462 Ry
     estimated scf accuracy    <          5.3E-11 Ry

     The total energy is the sum of the following terms:

     one-electron contribution =    -606.54522306 Ry
     hartree contribution      =     324.70658347 Ry
     xc contribution           =     -51.39870748 Ry
     ewald contribution        =       3.74828326 Ry
     smearing contrib. (-TS)   =      -0.00451082 Ry

     convergence has been achieved in  10 iterations

     Forces acting on atoms (Ry/au):

     atom    1 type  1   force =    -0.00069090    0.00031540   -0.00060842
     atom    2 type  1   force =    -0.00017422    0.00099126    0.00059782
     atom    3 type  1   force =    -0.00016293   -0.00040213    0.00006456
     atom    4 type  1   force =     0.00041466   -0.00035658    0.00017169
     atom    5 type  1   force =     0.00061339   -0.00054795   -0.00022565

     Total force =     0.001888     Total SCF correction =     0.000021

     bfgs converged in  38 scf cycles and  35 bfgs steps
     (criteria: energy <  1.0E-04, force <  1.0E-03)

     End of BFGS Geometry Optimization

     Final energy   =    -329.4935746345 Ry
Begin final coordinates

ATOMIC_POSITIONS (bohr)
Au      -1.600973661   2.346985456  -1.113780754
Au      -0.695856609   4.413419679   3.534447563
Au       3.031722863   1.616466397   0.781386177
Au       3.913625669   3.653708729   5.755675974
Au       7.482409739   1.044256740   3.097315040
End final coordinates

     Writing output data file pwscf.save

     General routines

     Parallel routines

   This run was terminated on:  17:32: 1   3Aug2017

   JOB DONE.