     Program PWSCF v.6.0 (svn rev. 13079) starts on  3Aug2017 at 22: 9:43

     Current dimensions of program PWSCF are:
     Max number of different atomic species (ntypx) = 10
     Max number of k-points (npk) =  40000
     Max angular momentum in pseudopotentials (lmaxx) =  3
     Message from routine iosys:
     pot_extrapolation='second-order' not available, using 'atomic'
     Message from routine iosys:
     wfc_extrapolation='second-order' not available, using 'atomic'

     Subspace diagonalization in iterative solution of the eigenvalue problem:
     a serial algorithm will be used

     bravais-lattice index     =            1
     lattice parameter (alat)  =      20.0000  a.u.
     unit-cell volume          =    8000.0000 (a.u.)^3
     number of atoms/cell      =            5
     number of atomic types    =            1
     number of electrons       =        55.00
     number of Kohn-Sham states=           34
     kinetic-energy cutoff     =      30.0000  Ry
     charge density cutoff     =     120.0000  Ry
     convergence threshold     =      1.0E-08
     mixing beta               =       0.7000
     number of iterations used =            8  plain     mixing
     Exchange-correlation      = BLYP ( 1  3  1  3 0 0)
     nstep                     =           50

     celldm(1)=  20.000000  celldm(2)=   0.000000  celldm(3)=   0.000000
     celldm(4)=   0.000000  celldm(5)=   0.000000  celldm(6)=   0.000000

     crystal axes: (cart. coord. in units of alat)
               a(1) = (   1.000000   0.000000   0.000000 )
               a(2) = (   0.000000   1.000000   0.000000 )
               a(3) = (   0.000000   0.000000   1.000000 )

     reciprocal axes: (cart. coord. in units 2 pi/alat)
               b(1) = (  1.000000  0.000000  0.000000 )
               b(2) = (  0.000000  1.000000  0.000000 )
               b(3) = (  0.000000  0.000000  1.000000 )

     PseudoPot. # 1 for Au read from file:
     ./Au.blyp-d-hgh.UPF
     MD5 check sum: c10d8bae01f806c36a1643a1c69a8479
     Pseudo is Norm-conserving, Zval = 11.0
     Generated in analytical, separable form
     Using radial grid of 1279 points,  6 beta functions with:
                l(1) =   0
                l(2) =   0
                l(3) =   1
                l(4) =   1
                l(5) =   2
                l(6) =   2

     atomic species   valence    mass     pseudopotential
        Au            11.00    28.08600     Au( 1.00)

     No symmetry found

   Cartesian axes

     site n.     atom                  positions (alat units)
         1           Au  tau(   1) = (  -0.1124138   0.1615663  -0.0209893  )
         2           Au  tau(   2) = (  -0.0123022   0.2167543   0.2239513  )
         3           Au  tau(   3) = (   0.1428521   0.1161510   0.0026035  )
         4           Au  tau(   4) = (   0.2152609   0.2247023   0.2784026  )
         5           Au  tau(   5) = (   0.3564367   0.0463522   0.1236116  )

     number of k points=     1  Marzari-Vanderbilt smearing, width (Ry)=  0.0250
                       cart. coord. in units 2pi/alat
        k(    1) = (   0.0000000   0.0000000   0.0000000), wk =   2.0000000

     Initial potential from superposition of free atoms
     Check: negative starting charge=   -0.006086

     starting charge   54.99940, renormalised to   55.00000

     negative rho (up, down):  6.086E-03 0.000E+00
     Starting wfc are   45 randomized atomic wfcs

     Self-consistent Calculation

     iteration #  1     ecut=    30.00 Ry     beta=0.70
     Davidson diagonalization with overlap
     ethr =  1.00E-02,  avg # of iterations =  3.0

     Threshold (ethr) on eigenvalues was too large:
     Diagonalizing with lowered threshold

     Davidson diagonalization with overlap
     ethr =  4.56E-04,  avg # of iterations =  3.0

     negative rho (up, down):  7.998E-04 0.000E+00

     total energy              =    -329.32247085 Ry
     Harris-Foulkes estimate   =    -329.50884517 Ry
     estimated scf accuracy    <       0.30612808 Ry

[...]

     End of self-consistent calculation

          k = 0.0000 0.0000 0.0000 ( 22119 PWs)   bands (ev):

    -8.0891  -7.8026  -7.2968  -7.1177  -6.9761  -6.7388  -6.4880  -6.2654
    -6.1876  -5.8552  -5.7632  -5.6554  -5.5959  -5.5178  -5.4468  -5.3773
    -5.3216  -5.2516  -5.2209  -5.1598  -5.1280  -5.0412  -4.8960  -4.8597
    -4.8178  -4.6898  -4.3373  -4.0441  -2.5118  -2.1902  -0.4346  -0.3203
     0.5392   0.5693

     the Fermi energy is    -4.0347 ev

!    total energy              =    -329.45236560 Ry
     Harris-Foulkes estimate   =    -329.45236561 Ry
     estimated scf accuracy    <          4.2E-09 Ry

     The total energy is the sum of the following terms:

     one-electron contribution =    -591.86292889 Ry
     hartree contribution      =     317.52844569 Ry
     xc contribution           =     -51.38584068 Ry
     ewald contribution        =      -3.73859566 Ry
     smearing contrib. (-TS)   =       0.00655394 Ry

     convergence has been achieved in  13 iterations

     Forces acting on atoms (Ry/au):

     atom    1 type  1   force =     0.02274491    0.00479276    0.01586864
     atom    2 type  1   force =    -0.08681044   -0.00903417   -0.05121246
     atom    3 type  1   force =    -0.01874955    0.00513854    0.02637778
     atom    4 type  1   force =     0.09630242   -0.01787365    0.00077279
     atom    5 type  1   force =    -0.01348735    0.01697652    0.00819325

     Total force =     0.149123     Total SCF correction =     0.000247

     BFGS Geometry Optimization

     number of scf cycles    =   1
     number of bfgs steps    =   0

     energy   new            =    -329.4523655951 Ry

     new trust radius        =       0.1011947852 bohr
     new conv_thr            =       0.0000000100 Ry

ATOMIC_POSITIONS (bohr)
Au      -2.225532090   3.236119762  -0.403916357
Au      -0.332853438   4.326051826   4.427813539
Au       2.838291453   2.328158542   0.078447779
Au       4.401519421   4.476172354   5.568824788
Au       7.115247653   0.944021516   2.480425252

     Writing output data file pwscf.save
     Check: negative starting charge=   -0.006086
     NEW-OLD atomic charge density approx. for the potential
     Check: negative starting charge=   -0.006094

[...]

     energy   old            =    -329.4523655951 Ry
     energy   new            =    -329.4690075231 Ry

     CASE: energy  _new < energy  _old

[...]

     WARNING: bfgs curvature condition failed, Theta= 0.683
     new trust radius        =       0.0583409506 bohr
     new conv_thr            =            1.0E-10 Ry

[...]

     WARNING: info= 11 for Hessian
     new trust radius        =       0.0397567332 bohr
     new conv_thr            =            1.0E-10 Ry

[...]

     WARNING: info= 10 for Hessian
     uphill step: resetting bfgs history

[...]

     Threshold (ethr) on eigenvalues was too large:
     Diagonalizing with lowered threshold

     Davidson diagonalization with overlap
     ethr =  3.49E-08,  avg # of iterations =  1.0

[...]

     WARNING: bfgs curvature condition failed, Theta= 0.319
     new trust radius        =       0.1064148242 bohr
     new conv_thr            =       0.0000000002 Ry

[...]

     Self-consistent Calculation

[...]

     total energy              =    -329.49331644 Ry
     Harris-Foulkes estimate   =    -329.49331646 Ry
     estimated scf accuracy    <          3.1E-10 Ry

     iteration # 10     ecut=    30.00 Ry     beta=0.70
     Davidson diagonalization with overlap
     ethr =  5.65E-13,  avg # of iterations =  2.0

     End of self-consistent calculation

          k = 0.0000 0.0000 0.0000 ( 22119 PWs)   bands (ev):

    -8.4892  -7.7770  -7.6118  -7.2208  -6.8213  -6.8010  -6.6285  -6.4662
    -6.2871  -6.0702  -5.9619  -5.7592  -5.7240  -5.6740  -5.4614  -5.3514
    -5.3038  -5.2491  -5.1909  -5.1790  -5.1685  -5.1212  -5.0042  -4.9288
    -4.8414  -4.7312  -4.4890  -3.7675  -2.4514  -2.1920  -0.5139  -0.1856
     0.5126   0.6969

     the Fermi energy is    -3.7324 ev

!    total energy              =    -329.49331646 Ry
     Harris-Foulkes estimate   =    -329.49331644 Ry
     estimated scf accuracy    <          4.9E-11 Ry

     The total energy is the sum of the following terms:

     one-electron contribution =    -604.65653275 Ry
     hartree contribution      =     323.76978946 Ry
     xc contribution           =     -51.39361623 Ry
     ewald contribution        =       2.79196716 Ry
     smearing contrib. (-TS)   =      -0.00492411 Ry

     convergence has been achieved in  10 iterations

     Forces acting on atoms (Ry/au):

     atom    1 type  1   force =    -0.00011238    0.00028020   -0.00085314
     atom    2 type  1   force =     0.00432163   -0.00048292   -0.00100611
     atom    3 type  1   force =     0.00059726   -0.00183762    0.00267506
     atom    4 type  1   force =    -0.00468189    0.00304081    0.00040225
     atom    5 type  1   force =    -0.00012462   -0.00100047   -0.00121806

     Total force =     0.008091     Total SCF correction =     0.000028

     number of scf cycles    =  50
     number of bfgs steps    =  49

     energy   old            =    -329.4932020080 Ry
     energy   new            =    -329.4933164575 Ry

     CASE: energy  _new < energy  _old

     new trust radius        =       0.0135452308 bohr
     new conv_thr            =       0.0000000001 Ry

ATOMIC_POSITIONS (bohr)
Au      -2.112743447   3.417976000  -0.507773799
Au      -0.313895462   5.257627931   3.992886142
Au       2.571145023   2.014349327   0.740821910
Au       4.448482978   3.814136236   5.525275127
Au       7.203683909   0.806434505   2.400385620

     Writing output data file pwscf.save
     Check: negative starting charge=   -0.006210
     NEW-OLD atomic charge density approx. for the potential
     Check: negative starting charge=   -0.006221

     negative rho (up, down):  1.132E-05 0.000E+00

     Writing output data file pwscf.save

     General routines

     Parallel routines

   This run was terminated on:  22:11:54   3Aug2017

   JOB DONE.