     Program PWSCF v.6.0 (svn rev. 13079) starts on  3Aug2017 at 20:13:31

     Current dimensions of program PWSCF are:
     Max number of different atomic species (ntypx) = 10
     Max number of k-points (npk) =  40000
     Max angular momentum in pseudopotentials (lmaxx) =  3
     Message from routine iosys:
     pot_extrapolation='second-order' not available, using 'atomic'
     Message from routine iosys:
     wfc_extrapolation='second-order' not available, using 'atomic'

     Subspace diagonalization in iterative solution of the eigenvalue problem:
     a serial algorithm will be used

     bravais-lattice index     =            1
     lattice parameter (alat)  =      20.0000  a.u.
     unit-cell volume          =    8000.0000 (a.u.)^3
     number of atoms/cell      =            5
     number of atomic types    =            1
     number of electrons       =        55.00
     number of Kohn-Sham states=           34
     kinetic-energy cutoff     =      30.0000  Ry
     charge density cutoff     =     120.0000  Ry
     convergence threshold     =      1.0E-08
     mixing beta               =       0.7000
     number of iterations used =            8  plain     mixing
     Exchange-correlation      = BLYP ( 1  3  1  3 0 0)
     nstep                     =           50

     celldm(1)=  20.000000  celldm(2)=   0.000000  celldm(3)=   0.000000
     celldm(4)=   0.000000  celldm(5)=   0.000000  celldm(6)=   0.000000

     crystal axes: (cart. coord. in units of alat)
               a(1) = (   1.000000   0.000000   0.000000 )
               a(2) = (   0.000000   1.000000   0.000000 )
               a(3) = (   0.000000   0.000000   1.000000 )

     reciprocal axes: (cart. coord. in units 2 pi/alat)
               b(1) = (  1.000000  0.000000  0.000000 )
               b(2) = (  0.000000  1.000000  0.000000 )
               b(3) = (  0.000000  0.000000  1.000000 )

     PseudoPot. # 1 for Au read from file:
     ./Au.blyp-d-hgh.UPF
     MD5 check sum: c10d8bae01f806c36a1643a1c69a8479
     Pseudo is Norm-conserving, Zval = 11.0
     Generated in analytical, separable form
     Using radial grid of 1279 points,  6 beta functions with:
                l(1) =   0
                l(2) =   0
                l(3) =   1
                l(4) =   1
                l(5) =   2
                l(6) =   2

     atomic species   valence    mass     pseudopotential
        Au            11.00    28.08600     Au( 1.00)

     No symmetry found

   Cartesian axes

     site n.     atom                  positions (alat units)
         1           Au  tau(   1) = (  -0.0953025   0.1081360  -0.0281133  )
         2           Au  tau(   2) = (  -0.0257248   0.1626917   0.2263623  )
         3           Au  tau(   3) = (   0.1485701   0.1042898   0.0232117  )
         4           Au  tau(   4) = (   0.2122216   0.1958575   0.2820641  )
         5           Au  tau(   5) = (   0.3728660   0.0838404   0.1280597  )

     number of k points=     1  Marzari-Vanderbilt smearing, width (Ry)=  0.0250
                       cart. coord. in units 2pi/alat
        k(    1) = (   0.0000000   0.0000000   0.0000000), wk =   2.0000000

     Initial potential from superposition of free atoms
     Check: negative starting charge=   -0.006468

     starting charge   54.99940, renormalised to   55.00000

     negative rho (up, down):  6.468E-03 0.000E+00
     Starting wfc are   45 randomized atomic wfcs

     Self-consistent Calculation

     iteration #  1     ecut=    30.00 Ry     beta=0.70
     Davidson diagonalization with overlap
     ethr =  1.00E-02,  avg # of iterations =  3.0

     Threshold (ethr) on eigenvalues was too large:
     Diagonalizing with lowered threshold

     Davidson diagonalization with overlap
     ethr =  4.32E-04,  avg # of iterations =  6.0

     negative rho (up, down):  8.901E-04 0.000E+00

     total energy              =    -329.36017597 Ry
     Harris-Foulkes estimate   =    -329.54084729 Ry
     estimated scf accuracy    <       0.29644789 Ry

[...]

     End of self-consistent calculation

          k = 0.0000 0.0000 0.0000 ( 22119 PWs)   bands (ev):

    -8.5164  -7.8346  -7.7092  -7.3365  -7.0973  -6.8497  -6.6262  -6.4873
    -6.3164  -6.0196  -5.9771  -5.7733  -5.7541  -5.6686  -5.4241  -5.3618
    -5.2817  -5.2382  -5.2111  -5.1729  -5.1334  -5.1113  -4.9151  -4.8739
    -4.8148  -4.6538  -4.3670  -3.8326  -2.4217  -2.1409  -0.5428  -0.2544
     0.5090   0.7998

     the Fermi energy is    -3.8308 ev

!    total energy              =    -329.48139273 Ry
     Harris-Foulkes estimate   =    -329.48139273 Ry
     estimated scf accuracy    <          1.3E-09 Ry

     The total energy is the sum of the following terms:

     one-electron contribution =    -614.18009974 Ry
     hartree contribution      =     328.54344909 Ry
     xc contribution           =     -51.44127025 Ry
     ewald contribution        =       7.59445600 Ry
     smearing contrib. (-TS)   =       0.00207218 Ry

     convergence has been achieved in  13 iterations

     Forces acting on atoms (Ry/au):

     atom    1 type  1   force =    -0.00468658    0.00289754    0.00784192
     atom    2 type  1   force =    -0.03083403   -0.00454121   -0.02542991
     atom    3 type  1   force =    -0.00887528    0.00061326    0.00744149
     atom    4 type  1   force =     0.01853395    0.00782670    0.01534037
     atom    5 type  1   force =     0.02586194   -0.00679628   -0.00519386

     Total force =     0.056802     Total SCF correction =     0.000145

     BFGS Geometry Optimization

     number of scf cycles    =   1
     number of bfgs steps    =   0

     energy   new            =    -329.4813927279 Ry

     new trust radius        =       0.0402248771 bohr
     new conv_thr            =       0.0000000100 Ry

ATOMIC_POSITIONS (bohr)
Au      -1.910737576   2.165616537  -0.554424085
Au      -0.545330033   3.249293787   4.501817086
Au       2.962525719   2.086409258   0.471676489
Au       4.262966947   3.924975701   5.656623365
Au       7.483180944   1.670011717   2.556001144

     Writing output data file pwscf.save
     Check: negative starting charge=   -0.006468
     NEW-OLD atomic charge density approx. for the potential
     Check: negative starting charge=   -0.006459

[...]

     energy   old            =    -329.4813927279 Ry
     energy   new            =    -329.4841474745 Ry

     CASE: energy  _new < energy  _old

[...]

     WARNING: bfgs curvature condition failed, Theta= 0.537
     new trust radius        =       0.0991560972 bohr
     new conv_thr            =       0.0000000002 Ry

[...]

     WARNING: info= 12 for Hessian
     new trust radius        =       0.0437777916 bohr
     new conv_thr            =       0.0000000001 Ry

[...]

     WARNING: info= 12 for Hessian
     new trust radius        =       0.0073107884 bohr
     new conv_thr            =            1.0E-10 Ry

[...]

     CASE: energy  _new > energy  _old

[...]

     WARNING: info= 13 for Hessian
     uphill step: resetting bfgs history

[...]

     number of scf cycles    =  48
     number of bfgs steps    =  46

     energy   old            =    -329.4916950268 Ry
     energy   new            =    -329.4917091437 Ry

     CASE: energy  _new < energy  _old

     new trust radius        =       0.0059607090 bohr
     new conv_thr            =            1.0E-10 Ry

ATOMIC_POSITIONS (bohr)
Au      -1.851757583   2.215147393  -0.641814692
Au      -0.751665820   3.870876868   4.124165610
Au       2.994120553   1.868403278   0.779227971
Au       4.156219648   3.534954057   5.793987852
Au       7.705689202   1.606925405   2.576127260

     Writing output data file pwscf.save
     Check: negative starting charge=   -0.006482
     NEW-OLD atomic charge density approx. for the potential
     Check: negative starting charge=   -0.006479

     negative rho (up, down):  4.961E-07 0.000E+00

     Self-consistent Calculation

[...]

     Threshold (ethr) on eigenvalues was too large:
     Diagonalizing with lowered threshold

     Davidson diagonalization with overlap
     ethr =  1.17E-08,  avg # of iterations =  2.0

[...]

     total energy              =    -329.49171735 Ry
     Harris-Foulkes estimate   =    -329.49171732 Ry
     estimated scf accuracy    <          2.1E-10 Ry

     iteration #  9     ecut=    30.00 Ry     beta=0.70
     Davidson diagonalization with overlap
     ethr =  3.90E-13,  avg # of iterations =  2.0

     End of self-consistent calculation

          k = 0.0000 0.0000 0.0000 ( 22119 PWs)   bands (ev):

    -8.5211  -7.7947  -7.6610  -7.2361  -6.8324  -6.8228  -6.6154  -6.4923
    -6.3076  -6.0854  -5.9471  -5.7713  -5.7336  -5.6857  -5.4769  -5.3572
    -5.3104  -5.2561  -5.1992  -5.1815  -5.1764  -5.1193  -5.0037  -4.9276
    -4.8298  -4.7428  -4.4860  -3.7775  -2.4973  -2.1959  -0.5633  -0.1898
     0.5199   0.8789

     the Fermi energy is    -3.7439 ev

!    total energy              =    -329.49171735 Ry
     Harris-Foulkes estimate   =    -329.49171735 Ry
     estimated scf accuracy    <          5.0E-11 Ry

     The total energy is the sum of the following terms:

     one-electron contribution =    -609.20052804 Ry
     hartree contribution      =     326.02721441 Ry
     xc contribution           =     -51.40090672 Ry
     ewald contribution        =       5.08709418 Ry
     smearing contrib. (-TS)   =      -0.00459119 Ry

     convergence has been achieved in   9 iterations

     Forces acting on atoms (Ry/au):

     atom    1 type  1   force =    -0.00016349   -0.00018936    0.00066902
     atom    2 type  1   force =     0.00030710    0.00053242    0.00024167
     atom    3 type  1   force =     0.00055515   -0.00037811   -0.00084339
     atom    4 type  1   force =    -0.00058901    0.00001812    0.00057289
     atom    5 type  1   force =    -0.00010975    0.00001694   -0.00064019

     Total force =     0.001791     Total SCF correction =     0.000024

     bfgs converged in  49 scf cycles and  47 bfgs steps
     (criteria: energy <  1.0E-04, force <  1.0E-03)

     End of BFGS Geometry Optimization

     Final energy   =    -329.4917173549 Ry
Begin final coordinates

ATOMIC_POSITIONS (bohr)
Au      -1.851757583   2.215147393  -0.641814692
Au      -0.751665820   3.870876868   4.124165610
Au       2.994120553   1.868403278   0.779227971
Au       4.156219648   3.534954057   5.793987852
Au       7.705689202   1.606925405   2.576127260
End final coordinates

     Writing output data file pwscf.save

     General routines

     Parallel routines

   This run was terminated on:  20:15:37   3Aug2017

   JOB DONE.