     Program PWSCF v.6.0 (svn rev. 13079) starts on  4Aug2017 at  2:59:47

     Current dimensions of program PWSCF are:
     Max number of different atomic species (ntypx) = 10
     Max number of k-points (npk) =  40000
     Max angular momentum in pseudopotentials (lmaxx) =  3
     Message from routine iosys:
     pot_extrapolation='second-order' not available, using 'atomic'
     Message from routine iosys:
     wfc_extrapolation='second-order' not available, using 'atomic'

     Subspace diagonalization in iterative solution of the eigenvalue problem:
     a serial algorithm will be used

     bravais-lattice index     =            1
     lattice parameter (alat)  =      20.0000  a.u.
     unit-cell volume          =    8000.0000 (a.u.)^3
     number of atoms/cell      =            5
     number of atomic types    =            1
     number of electrons       =        55.00
     number of Kohn-Sham states=           34
     kinetic-energy cutoff     =      30.0000  Ry
     charge density cutoff     =     120.0000  Ry
     convergence threshold     =      1.0E-08
     mixing beta               =       0.7000
     number of iterations used =            8  plain     mixing
     Exchange-correlation      = BLYP ( 1  3  1  3 0 0)
     nstep                     =           50

     celldm(1)=  20.000000  celldm(2)=   0.000000  celldm(3)=   0.000000
     celldm(4)=   0.000000  celldm(5)=   0.000000  celldm(6)=   0.000000

     crystal axes: (cart. coord. in units of alat)
               a(1) = (   1.000000   0.000000   0.000000 )
               a(2) = (   0.000000   1.000000   0.000000 )
               a(3) = (   0.000000   0.000000   1.000000 )

     reciprocal axes: (cart. coord. in units 2 pi/alat)
               b(1) = (  1.000000  0.000000  0.000000 )
               b(2) = (  0.000000  1.000000  0.000000 )
               b(3) = (  0.000000  0.000000  1.000000 )

     PseudoPot. # 1 for Au read from file:
     ./Au.blyp-d-hgh.UPF
     MD5 check sum: c10d8bae01f806c36a1643a1c69a8479
     Pseudo is Norm-conserving, Zval = 11.0
     Generated in analytical, separable form
     Using radial grid of 1279 points,  6 beta functions with:
                l(1) =   0
                l(2) =   0
                l(3) =   1
                l(4) =   1
                l(5) =   2
                l(6) =   2

     atomic species   valence    mass     pseudopotential
        Au            11.00    28.08600     Au( 1.00)

     No symmetry found

   Cartesian axes

     site n.     atom                  positions (alat units)
         1           Au  tau(   1) = (  -0.0935928   0.0691889  -0.0183934  )
         2           Au  tau(   2) = (   0.0133489   0.1521183   0.2011676  )
         3           Au  tau(   3) = (   0.1570559   0.1373387  -0.0213522  )
         4           Au  tau(   4) = (   0.2314303   0.2442966   0.2834392  )
         5           Au  tau(   5) = (   0.3127994   0.0340539   0.1451679  )

     number of k points=     1  Marzari-Vanderbilt smearing, width (Ry)=  0.0250
                       cart. coord. in units 2pi/alat
        k(    1) = (   0.0000000   0.0000000   0.0000000), wk =   2.0000000

     Initial potential from superposition of free atoms
     Check: negative starting charge=   -0.006133

     starting charge   54.99940, renormalised to   55.00000

     negative rho (up, down):  6.133E-03 0.000E+00
     Starting wfc are   45 randomized atomic wfcs

     Self-consistent Calculation

     iteration #  1     ecut=    30.00 Ry     beta=0.70
     Davidson diagonalization with overlap
     ethr =  1.00E-02,  avg # of iterations =  3.0

     Threshold (ethr) on eigenvalues was too large:
     Diagonalizing with lowered threshold

     Davidson diagonalization with overlap
     ethr =  3.49E-04,  avg # of iterations =  7.0

     negative rho (up, down):  8.214E-04 0.000E+00

     total energy              =    -329.35927844 Ry
     Harris-Foulkes estimate   =    -329.50667823 Ry
     estimated scf accuracy    <       0.24950794 Ry

[...]

     End of self-consistent calculation

          k = 0.0000 0.0000 0.0000 ( 22119 PWs)   bands (ev):

    -8.1147  -7.6402  -7.4448  -7.2105  -6.8726  -6.7334  -6.5829  -6.5236
    -6.3719  -5.9198  -5.8076  -5.6989  -5.6466  -5.5656  -5.4859  -5.4628
    -5.2830  -5.2054  -5.1691  -5.0981  -5.0626  -5.0124  -4.9058  -4.8725
    -4.7643  -4.4642  -4.3320  -3.6959  -2.5769  -2.2927  -0.2836  -0.1335
     0.3241   0.5494

     the Fermi energy is    -3.6811 ev

!    total energy              =    -329.45676979 Ry
     Harris-Foulkes estimate   =    -329.45676981 Ry
     estimated scf accuracy    <          1.3E-09 Ry

     The total energy is the sum of the following terms:

     one-electron contribution =    -609.03968019 Ry
     hartree contribution      =     326.11235214 Ry
     xc contribution           =     -51.39371031 Ry
     ewald contribution        =       4.86453390 Ry
     smearing contrib. (-TS)   =      -0.00026534 Ry

     convergence has been achieved in  12 iterations

     Forces acting on atoms (Ry/au):

     atom    1 type  1   force =     0.00187758    0.00690024    0.00333650
     atom    2 type  1   force =    -0.00879733   -0.00180246   -0.01282140
     atom    3 type  1   force =    -0.01810039   -0.00725384   -0.00736290
     atom    4 type  1   force =     0.01366372   -0.00942029    0.00313090
     atom    5 type  1   force =     0.01135642    0.01157635    0.01371689

     Total force =     0.038446     Total SCF correction =     0.000149

     BFGS Geometry Optimization

     number of scf cycles    =   1
     number of bfgs steps    =   0

     energy   new            =    -329.4567697943 Ry

     new trust radius        =       0.0212398983 bohr
     new conv_thr            =       0.0000000100 Ry

ATOMIC_POSITIONS (bohr)
Au      -1.869977418   1.390679240  -0.364531499
Au       0.258179674   3.040562545   4.010529601
Au       3.123017606   2.739520165  -0.434405896
Au       4.642270715   4.876510705   5.671913901
Au       6.267345423   0.692655345   2.917075893

     Writing output data file pwscf.save
     Check: negative starting charge=   -0.006133
     NEW-OLD atomic charge density approx. for the potential
     Check: negative starting charge=   -0.006126

[...]

     energy   old            =    -329.4567697943 Ry
     energy   new            =    -329.4581075154 Ry

     CASE: energy  _new < energy  _old

     WARNING: bfgs curvature condition failed, Theta= 0.987
     new trust radius        =       0.0233638881 bohr
     new conv_thr            =       0.0000000013 Ry

[...]

     WARNING: bfgs curvature condition failed, Theta= 0.595
     uphill step: resetting bfgs history

[...]

     iteration #  1     ecut=    30.00 Ry     beta=0.70
     Davidson diagonalization with overlap
     c_bands:  1 eigenvalues not converged
     ethr =  1.00E-06,  avg # of iterations = 20.0

[...]

     WARNING: bfgs curvature condition failed, Theta= 0.634
     new trust radius        =       0.2401821607 bohr
     new conv_thr            =       0.0000000011 Ry

[...]

     CASE: energy  _new > energy  _old

[...]

     iteration #  1     ecut=    30.00 Ry     beta=0.70
     Davidson diagonalization with overlap
     c_bands:  1 eigenvalues not converged
     ethr =  1.00E-06,  avg # of iterations = 20.0

[...]

     WARNING: info= 12 for Hessian
     new trust radius        =       0.0170880809 bohr
     new conv_thr            =       0.0000000002 Ry

[...]

     WARNING: info= 12 for Hessian
     uphill step: resetting bfgs history

[...]

     Threshold (ethr) on eigenvalues was too large:
     Diagonalizing with lowered threshold

     Davidson diagonalization with overlap
     ethr =  8.31E-08,  avg # of iterations =  1.0

[...]

     Self-consistent Calculation

[...]

     total energy              =    -329.49245686 Ry
     Harris-Foulkes estimate   =    -329.49245686 Ry
     estimated scf accuracy    <          5.6E-10 Ry

     iteration # 10     ecut=    30.00 Ry     beta=0.70
     Davidson diagonalization with overlap
     ethr =  1.01E-12,  avg # of iterations =  2.0

     End of self-consistent calculation

          k = 0.0000 0.0000 0.0000 ( 22119 PWs)   bands (ev):

    -8.4900  -7.7695  -7.6294  -7.2241  -6.8407  -6.7953  -6.6075  -6.4731
    -6.2918  -6.0702  -5.9507  -5.7562  -5.7205  -5.6739  -5.4609  -5.3551
    -5.3051  -5.2494  -5.1939  -5.1796  -5.1707  -5.1199  -4.9995  -4.9337
    -4.8594  -4.7097  -4.4968  -3.7420  -2.4122  -2.2572  -0.5269  -0.1898
     0.4025   0.7591

     the Fermi energy is    -3.7038 ev

!    total energy              =    -329.49245686 Ry
     Harris-Foulkes estimate   =    -329.49245686 Ry
     estimated scf accuracy    <          3.4E-11 Ry

     The total energy is the sum of the following terms:

     one-electron contribution =    -604.48524585 Ry
     hartree contribution      =     323.68433138 Ry
     xc contribution           =     -51.39361229 Ry
     ewald contribution        =       2.70774270 Ry
     smearing contrib. (-TS)   =      -0.00567279 Ry

     convergence has been achieved in  10 iterations

     Forces acting on atoms (Ry/au):

     atom    1 type  1   force =    -0.00025692    0.00082092   -0.00029967
     atom    2 type  1   force =    -0.00007556    0.00003297    0.00192418
     atom    3 type  1   force =     0.00306003    0.00043312    0.00136536
     atom    4 type  1   force =     0.00033629    0.00082033   -0.00287309
     atom    5 type  1   force =    -0.00306384   -0.00210734   -0.00011678

     Total force =     0.006232     Total SCF correction =     0.000029

     number of scf cycles    =  50
     number of bfgs steps    =  48

     energy   old            =    -329.4923761759 Ry
     energy   new            =    -329.4924568562 Ry

     CASE: energy  _new < energy  _old

     new trust radius        =       0.0258970607 bohr
     new conv_thr            =            1.0E-10 Ry

ATOMIC_POSITIONS (bohr)
Au      -2.081532858   2.213007127  -0.481091255
Au       0.993338278   3.381183707   3.376278722
Au       2.836031018   0.730355533  -0.877693334
Au       4.391262241   4.375439239   7.003064500
Au       6.281737321   2.039942394   2.780023367

     Writing output data file pwscf.save
     Check: negative starting charge=   -0.006349
     NEW-OLD atomic charge density approx. for the potential
     Check: negative starting charge=   -0.006347

     negative rho (up, down):  9.857E-05 0.000E+00

     Writing output data file pwscf.save

     General routines

     Parallel routines

   This run was terminated on:   3: 2: 4   4Aug2017

   JOB DONE.