     Program PWSCF v.6.0 (svn rev. 13079) starts on  4Aug2017 at  6:55: 1

     Current dimensions of program PWSCF are:
     Max number of different atomic species (ntypx) = 10
     Max number of k-points (npk) =  40000
     Max angular momentum in pseudopotentials (lmaxx) =  3
     Message from routine iosys:
     pot_extrapolation='second-order' not available, using 'atomic'
     Message from routine iosys:
     wfc_extrapolation='second-order' not available, using 'atomic'

     Subspace diagonalization in iterative solution of the eigenvalue problem:
     a serial algorithm will be used

     bravais-lattice index     =            1
     lattice parameter (alat)  =      20.0000  a.u.
     unit-cell volume          =    8000.0000 (a.u.)^3
     number of atoms/cell      =            5
     number of atomic types    =            1
     number of electrons       =        55.00
     number of Kohn-Sham states=           34
     kinetic-energy cutoff     =      30.0000  Ry
     charge density cutoff     =     120.0000  Ry
     convergence threshold     =      1.0E-08
     mixing beta               =       0.7000
     number of iterations used =            8  plain     mixing
     Exchange-correlation      = BLYP ( 1  3  1  3 0 0)
     nstep                     =           50

     celldm(1)=  20.000000  celldm(2)=   0.000000  celldm(3)=   0.000000
     celldm(4)=   0.000000  celldm(5)=   0.000000  celldm(6)=   0.000000

     crystal axes: (cart. coord. in units of alat)
               a(1) = (   1.000000   0.000000   0.000000 )
               a(2) = (   0.000000   1.000000   0.000000 )
               a(3) = (   0.000000   0.000000   1.000000 )

     reciprocal axes: (cart. coord. in units 2 pi/alat)
               b(1) = (  1.000000  0.000000  0.000000 )
               b(2) = (  0.000000  1.000000  0.000000 )
               b(3) = (  0.000000  0.000000  1.000000 )

     PseudoPot. # 1 for Au read from file:
     ./Au.blyp-d-hgh.UPF
     MD5 check sum: c10d8bae01f806c36a1643a1c69a8479
     Pseudo is Norm-conserving, Zval = 11.0
     Generated in analytical, separable form
     Using radial grid of 1279 points,  6 beta functions with:
                l(1) =   0
                l(2) =   0
                l(3) =   1
                l(4) =   1
                l(5) =   2
                l(6) =   2

     atomic species   valence    mass     pseudopotential
        Au            11.00    28.08600     Au( 1.00)

     No symmetry found

   Cartesian axes

     site n.     atom                  positions (alat units)
         1           Au  tau(   1) = (  -0.0336782   0.0144181   0.0243333  )
         2           Au  tau(   2) = (  -0.0340510   0.2056176   0.1779351  )
         3           Au  tau(   3) = (   0.1810910  -0.1233516  -0.0500220  )
         4           Au  tau(   4) = (   0.1748406   0.2104752   0.2456154  )
         5           Au  tau(   5) = (   0.2532739  -0.0121377   0.1788634  )

     number of k points=     1  Marzari-Vanderbilt smearing, width (Ry)=  0.0250
                       cart. coord. in units 2pi/alat
        k(    1) = (   0.0000000   0.0000000   0.0000000), wk =   2.0000000

     Initial potential from superposition of free atoms
     Check: negative starting charge=   -0.005894

     starting charge   54.99940, renormalised to   55.00000

     negative rho (up, down):  5.894E-03 0.000E+00
     Starting wfc are   45 randomized atomic wfcs

     Self-consistent Calculation

     iteration #  1     ecut=    30.00 Ry     beta=0.70
     Davidson diagonalization with overlap
     ethr =  1.00E-02,  avg # of iterations =  4.0

     Threshold (ethr) on eigenvalues was too large:
     Diagonalizing with lowered threshold

     Davidson diagonalization with overlap
     ethr =  6.67E-04,  avg # of iterations =  3.0

     negative rho (up, down):  7.244E-04 0.000E+00

     total energy              =    -329.20499566 Ry
     Harris-Foulkes estimate   =    -329.47505914 Ry
     estimated scf accuracy    <       0.41081673 Ry

[...]

     End of self-consistent calculation

          k = 0.0000 0.0000 0.0000 ( 22119 PWs)   bands (ev):

    -9.0262  -8.0743  -7.7607  -7.5796  -7.4074  -6.8712  -6.6699  -6.6253
    -6.3379  -5.9592  -5.9391  -5.8735  -5.6990  -5.5351  -5.3484  -5.2648
    -5.2268  -5.1184  -4.9889  -4.9625  -4.9342  -4.8667  -4.8409  -4.7364
    -4.5605  -4.4095  -4.2353  -3.9164  -2.5967  -1.9894  -0.4465  -0.3529
     0.3305   0.7970

     the Fermi energy is    -3.9425 ev

!    total energy              =    -329.39467185 Ry
     Harris-Foulkes estimate   =    -329.39467187 Ry
     estimated scf accuracy    <          9.0E-09 Ry

     The total energy is the sum of the following terms:

     one-electron contribution =    -597.78117658 Ry
     hartree contribution      =     320.42187437 Ry
     xc contribution           =     -51.49736813 Ry
     ewald contribution        =      -0.55222942 Ry
     smearing contrib. (-TS)   =       0.01422791 Ry

     convergence has been achieved in  13 iterations

     Forces acting on atoms (Ry/au):

     atom    1 type  1   force =     0.02759710   -0.03419154   -0.02148792
     atom    2 type  1   force =    -0.19088531    0.02493422   -0.03701064
     atom    3 type  1   force =    -0.00991169    0.01117484    0.01936766
     atom    4 type  1   force =     0.17722230    0.03333456    0.07258939
     atom    5 type  1   force =    -0.00402240   -0.03525208   -0.03345850

     Total force =     0.285632     Total SCF correction =     0.000466

     BFGS Geometry Optimization

     number of scf cycles    =   1
     number of bfgs steps    =   0

     energy   new            =    -329.3946718532 Ry

     new trust radius        =       0.1960324046 bohr
     new conv_thr            =       0.0000000100 Ry

ATOMIC_POSITIONS (bohr)
Au      -0.645965902   0.254170459   0.465178078
Au      -0.871906308   4.137285225   3.521691363
Au       3.611908315  -2.455856163  -0.981073336
Au       3.674034296   4.242838555   4.984896394
Au       5.061455599  -0.278007076   3.543809500

     Writing output data file pwscf.save
     Check: negative starting charge=   -0.005894
     NEW-OLD atomic charge density approx. for the potential
     Check: negative starting charge=   -0.005830

[...]

     energy   old            =    -329.3946718532 Ry
     energy   new            =    -329.4435637447 Ry

     CASE: energy  _new < energy  _old

[...]

     WARNING: bfgs curvature condition failed, Theta= 0.883
     new trust radius        =       0.0890381470 bohr
     new conv_thr            =       0.0000000017 Ry

[...]

     WARNING: bfgs curvature condition failed, Theta= 0.531
     new trust radius        =       0.0217108012 bohr
     new conv_thr            =            1.0E-10 Ry

[...]

     WARNING: info=  9 for Hessian
     new trust radius        =       0.0143948682 bohr
     new conv_thr            =            1.0E-10 Ry

[...]

     WARNING: info=  9 for Hessian
     uphill step: resetting bfgs history

[...]

     Self-consistent Calculation

[...]

     Threshold (ethr) on eigenvalues was too large:
     Diagonalizing with lowered threshold

     Davidson diagonalization with overlap
     ethr =  6.01E-08,  avg # of iterations =  1.0

[...]

     total energy              =    -329.48796577 Ry
     Harris-Foulkes estimate   =    -329.48796575 Ry
     estimated scf accuracy    <          1.9E-10 Ry

     iteration # 10     ecut=    30.00 Ry     beta=0.70
     Davidson diagonalization with overlap
     ethr =  3.45E-13,  avg # of iterations =  2.0

     End of self-consistent calculation

          k = 0.0000 0.0000 0.0000 ( 22119 PWs)   bands (ev):

    -8.2056  -7.5454  -7.4811  -7.3109  -7.0381  -6.6279  -6.3562  -6.3375
    -6.2523  -6.1181  -6.0140  -5.7054  -5.6101  -5.6062  -5.5393  -5.4592
    -5.2676  -5.2210  -5.2074  -5.0671  -5.0576  -5.0116  -4.9094  -4.9050
    -4.8423  -4.6454  -4.3307  -3.7953  -2.5099  -2.0246  -0.4432  -0.2784
     0.3559   0.6550

     the Fermi energy is    -3.7902 ev

!    total energy              =    -329.48796576 Ry
     Harris-Foulkes estimate   =    -329.48796577 Ry
     estimated scf accuracy    <          2.7E-11 Ry

     The total energy is the sum of the following terms:

     one-electron contribution =    -593.77806575 Ry
     hartree contribution      =     318.45393164 Ry
     xc contribution           =     -51.40549894 Ry
     ewald contribution        =      -2.75955967 Ry
     smearing contrib. (-TS)   =       0.00122696 Ry

     convergence has been achieved in  10 iterations

     Forces acting on atoms (Ry/au):

     atom    1 type  1   force =     0.00118736   -0.00098382   -0.00101410
     atom    2 type  1   force =    -0.00042257    0.00121938    0.00171824
     atom    3 type  1   force =     0.00126434    0.00015123    0.00042879
     atom    4 type  1   force =     0.00062552    0.00066142    0.00046299
     atom    5 type  1   force =    -0.00265465   -0.00104821   -0.00159592

     Total force =     0.004644     Total SCF correction =     0.000025

     number of scf cycles    =  50
     number of bfgs steps    =  49

     energy   old            =    -329.4879354265 Ry
     energy   new            =    -329.4879657550 Ry

     CASE: energy  _new < energy  _old

     new trust radius        =       0.0150652978 bohr
     new conv_thr            =            1.0E-10 Ry

ATOMIC_POSITIONS (bohr)
Au      -0.030011363   0.220611430   0.449820259
Au      -1.027049009   4.143730417   3.531675146
Au       3.609942502  -3.141860065  -0.871301414
Au       3.607443984   4.326066513   5.705269865
Au       4.669199887   0.351882705   2.719038144

     Writing output data file pwscf.save
     Check: negative starting charge=   -0.005838
     NEW-OLD atomic charge density approx. for the potential
     Check: negative starting charge=   -0.005833

     negative rho (up, down):  3.403E-05 0.000E+00

     Writing output data file pwscf.save

     General routines

     Parallel routines

   This run was terminated on:   6:57:15   4Aug2017

   JOB DONE.