     Program PWSCF v.6.0 (svn rev. 13079) starts on  3Aug2017 at 19: 6:30

     Current dimensions of program PWSCF are:
     Max number of different atomic species (ntypx) = 10
     Max number of k-points (npk) =  40000
     Max angular momentum in pseudopotentials (lmaxx) =  3
     Message from routine iosys:
     pot_extrapolation='second-order' not available, using 'atomic'
     Message from routine iosys:
     wfc_extrapolation='second-order' not available, using 'atomic'

     Subspace diagonalization in iterative solution of the eigenvalue problem:
     a serial algorithm will be used

     bravais-lattice index     =            1
     lattice parameter (alat)  =      20.0000  a.u.
     unit-cell volume          =    8000.0000 (a.u.)^3
     number of atoms/cell      =            5
     number of atomic types    =            1
     number of electrons       =        55.00
     number of Kohn-Sham states=           34
     kinetic-energy cutoff     =      30.0000  Ry
     charge density cutoff     =     120.0000  Ry
     convergence threshold     =      1.0E-08
     mixing beta               =       0.7000
     number of iterations used =            8  plain     mixing
     Exchange-correlation      = BLYP ( 1  3  1  3 0 0)
     nstep                     =           50

     celldm(1)=  20.000000  celldm(2)=   0.000000  celldm(3)=   0.000000
     celldm(4)=   0.000000  celldm(5)=   0.000000  celldm(6)=   0.000000

     crystal axes: (cart. coord. in units of alat)
               a(1) = (   1.000000   0.000000   0.000000 )
               a(2) = (   0.000000   1.000000   0.000000 )
               a(3) = (   0.000000   0.000000   1.000000 )

     reciprocal axes: (cart. coord. in units 2 pi/alat)
               b(1) = (  1.000000  0.000000  0.000000 )
               b(2) = (  0.000000  1.000000  0.000000 )
               b(3) = (  0.000000  0.000000  1.000000 )

     PseudoPot. # 1 for Au read from file:
     ./Au.blyp-d-hgh.UPF
     MD5 check sum: c10d8bae01f806c36a1643a1c69a8479
     Pseudo is Norm-conserving, Zval = 11.0
     Generated in analytical, separable form
     Using radial grid of 1279 points,  6 beta functions with:
                l(1) =   0
                l(2) =   0
                l(3) =   1
                l(4) =   1
                l(5) =   2
                l(6) =   2

     atomic species   valence    mass     pseudopotential
        Au            11.00    28.08600     Au( 1.00)

     No symmetry found

   Cartesian axes

     site n.     atom                  positions (alat units)
         1           Au  tau(   1) = (  -0.0975120   0.1399092  -0.0435959  )
         2           Au  tau(   2) = (  -0.0338715   0.2274287   0.1883437  )
         3           Au  tau(   3) = (   0.1642717   0.0864766   0.0212505  )
         4           Au  tau(   4) = (   0.2028793   0.1882547   0.2798347  )
         5           Au  tau(   5) = (   0.3845696   0.0633119   0.1582764  )

     number of k points=     1  Marzari-Vanderbilt smearing, width (Ry)=  0.0250
                       cart. coord. in units 2pi/alat
        k(    1) = (   0.0000000   0.0000000   0.0000000), wk =   2.0000000

     Initial potential from superposition of free atoms
     Check: negative starting charge=   -0.006222

     starting charge   54.99940, renormalised to   55.00000

     negative rho (up, down):  6.223E-03 0.000E+00
     Starting wfc are   45 randomized atomic wfcs

     Self-consistent Calculation

     iteration #  1     ecut=    30.00 Ry     beta=0.70
     Davidson diagonalization with overlap
     ethr =  1.00E-02,  avg # of iterations =  3.0

     Threshold (ethr) on eigenvalues was too large:
     Diagonalizing with lowered threshold

     Davidson diagonalization with overlap
     ethr =  3.78E-04,  avg # of iterations =  6.0

     negative rho (up, down):  8.460E-04 0.000E+00

     total energy              =    -329.37244236 Ry
     Harris-Foulkes estimate   =    -329.53001424 Ry
     estimated scf accuracy    <       0.26436741 Ry

[...]

     End of self-consistent calculation

          k = 0.0000 0.0000 0.0000 ( 22119 PWs)   bands (ev):

    -8.0558  -7.5087  -7.4703  -7.0942  -6.8176  -6.6412  -6.5515  -6.3682
    -6.2162  -5.9958  -5.8103  -5.6678  -5.6107  -5.5833  -5.4442  -5.4090
    -5.3386  -5.2002  -5.1903  -5.1816  -5.1425  -5.1327  -5.0957  -4.8987
    -4.8433  -4.7744  -4.4268  -3.7969  -2.7494  -2.1205  -0.4858  -0.1936
     0.3844   0.7335

     the Fermi energy is    -3.7736 ev

!    total energy              =    -329.47737111 Ry
     Harris-Foulkes estimate   =    -329.47737118 Ry
     estimated scf accuracy    <          7.1E-09 Ry

     The total energy is the sum of the following terms:

     one-electron contribution =    -590.98482874 Ry
     hartree contribution      =     317.03924000 Ry
     xc contribution           =     -51.35664183 Ry
     ewald contribution        =      -4.17271680 Ry
     smearing contrib. (-TS)   =      -0.00242374 Ry

     convergence has been achieved in  12 iterations

     Forces acting on atoms (Ry/au):

     atom    1 type  1   force =     0.02963060   -0.00449205    0.00734208
     atom    2 type  1   force =     0.00348692   -0.00505430   -0.00931603
     atom    3 type  1   force =    -0.02155044    0.01219903    0.01974825
     atom    4 type  1   force =    -0.00640588    0.00145192   -0.00373734
     atom    5 type  1   force =    -0.00516120   -0.00410459   -0.01403696

     Total force =     0.048759     Total SCF correction =     0.000260

     BFGS Geometry Optimization

     number of scf cycles    =   1
     number of bfgs steps    =   0

     energy   new            =    -329.4773711129 Ry

     new trust radius        =       0.0316738246 bohr
     new conv_thr            =       0.0000000100 Ry

ATOMIC_POSITIONS (bohr)
Au      -1.920610396   2.793691950  -0.864575918
Au      -0.673943083   4.543519698   3.757557967
Au       3.263884557   1.741731026   0.444759249
Au       4.051179120   3.766546916   5.592956663
Au       7.686230802   1.262132410   3.151492039

     Writing output data file pwscf.save
     Check: negative starting charge=   -0.006222
     NEW-OLD atomic charge density approx. for the potential
     Check: negative starting charge=   -0.006245

[...]

     energy   old            =    -329.4773711129 Ry
     energy   new            =    -329.4796488908 Ry

     CASE: energy  _new < energy  _old

     WARNING: bfgs curvature condition failed, Theta= 0.871
     new trust radius        =       0.0348412070 bohr
     new conv_thr            =       0.0000000023 Ry

[...]

     Threshold (ethr) on eigenvalues was too large:
     Diagonalizing with lowered threshold

     Davidson diagonalization with overlap
     ethr =  6.86E-08,  avg # of iterations =  1.0

[...]

     number of scf cycles    =  32
     number of bfgs steps    =  31

     energy   old            =    -329.4937661282 Ry
     energy   new            =    -329.4938190277 Ry

     CASE: energy  _new < energy  _old

     new trust radius        =       0.0362500830 bohr
     new conv_thr            =            1.0E-10 Ry

ATOMIC_POSITIONS (bohr)
Au      -1.575791066   2.758417262  -1.126236781
Au      -0.527996482   4.700124054   3.548296312
Au       2.993368765   1.728122248   0.810117783
Au       4.072956357   3.875292329   5.777725544
Au       7.444203426   1.045666107   3.072287143

     Writing output data file pwscf.save
     Check: negative starting charge=   -0.006243
     NEW-OLD atomic charge density approx. for the potential
     Check: negative starting charge=   -0.006228

[...]

     Self-consistent Calculation

[...]

     negative rho (up, down):  7.195E-07 0.000E+00

[...]

     total energy              =    -329.49384703 Ry
     Harris-Foulkes estimate   =    -329.49384706 Ry
     estimated scf accuracy    <          1.4E-10 Ry

     iteration # 11     ecut=    30.00 Ry     beta=0.70
     Davidson diagonalization with overlap
     ethr =  2.58E-13,  avg # of iterations =  3.0

     End of self-consistent calculation

          k = 0.0000 0.0000 0.0000 ( 22119 PWs)   bands (ev):

    -8.4960  -7.7688  -7.6461  -7.2262  -6.8613  -6.8079  -6.5979  -6.4724
    -6.3050  -6.0689  -5.9511  -5.7619  -5.7211  -5.6783  -5.4512  -5.3583
    -5.3143  -5.2429  -5.1998  -5.1834  -5.1657  -5.1234  -4.9995  -4.9238
    -4.8562  -4.7163  -4.4838  -3.7747  -2.4277  -2.2008  -0.5209  -0.1787
     0.4569   0.7637

     the Fermi energy is    -3.7412 ev

!    total energy              =    -329.49384700 Ry
     Harris-Foulkes estimate   =    -329.49384703 Ry
     estimated scf accuracy    <          2.2E-11 Ry

     The total energy is the sum of the following terms:

     one-electron contribution =    -605.40013470 Ry
     hartree contribution      =     324.13826772 Ry
     xc contribution           =     -51.39661732 Ry
     ewald contribution        =       3.16917653 Ry
     smearing contrib. (-TS)   =      -0.00453922 Ry

     convergence has been achieved in  11 iterations

     Forces acting on atoms (Ry/au):

     atom    1 type  1   force =     0.00032471    0.00002727    0.00061409
     atom    2 type  1   force =    -0.00054557    0.00051330   -0.00030609
     atom    3 type  1   force =    -0.00067459    0.00013714   -0.00025993
     atom    4 type  1   force =     0.00068245   -0.00061222   -0.00086863
     atom    5 type  1   force =     0.00021300   -0.00006549    0.00082055

     Total force =     0.001999     Total SCF correction =     0.000017

     bfgs converged in  33 scf cycles and  32 bfgs steps
     (criteria: energy <  1.0E-04, force <  1.0E-03)

     End of BFGS Geometry Optimization

     Final energy   =    -329.4938470015 Ry
Begin final coordinates

ATOMIC_POSITIONS (bohr)
Au      -1.575791066   2.758417262  -1.126236781
Au      -0.527996482   4.700124054   3.548296312
Au       2.993368765   1.728122248   0.810117783
Au       4.072956357   3.875292329   5.777725544
Au       7.444203426   1.045666107   3.072287143
End final coordinates

     Writing output data file pwscf.save

     General routines

     Parallel routines

   This run was terminated on:  19: 7:55   3Aug2017

   JOB DONE.