     Program PWSCF v.6.0 (svn rev. 13079) starts on  3Aug2017 at 11:38:52

     Current dimensions of program PWSCF are:
     Max number of different atomic species (ntypx) = 10
     Max number of k-points (npk) =  40000
     Max angular momentum in pseudopotentials (lmaxx) =  3
     Message from routine iosys:
     pot_extrapolation='second-order' not available, using 'atomic'
     Message from routine iosys:
     wfc_extrapolation='second-order' not available, using 'atomic'

     Subspace diagonalization in iterative solution of the eigenvalue problem:
     a serial algorithm will be used

     bravais-lattice index     =            1
     lattice parameter (alat)  =      20.0000  a.u.
     unit-cell volume          =    8000.0000 (a.u.)^3
     number of atoms/cell      =            5
     number of atomic types    =            1
     number of electrons       =        55.00
     number of Kohn-Sham states=           34
     kinetic-energy cutoff     =      30.0000  Ry
     charge density cutoff     =     120.0000  Ry
     convergence threshold     =      1.0E-08
     mixing beta               =       0.7000
     number of iterations used =            8  plain     mixing
     Exchange-correlation      = BLYP ( 1  3  1  3 0 0)
     nstep                     =           50

     celldm(1)=  20.000000  celldm(2)=   0.000000  celldm(3)=   0.000000
     celldm(4)=   0.000000  celldm(5)=   0.000000  celldm(6)=   0.000000

     crystal axes: (cart. coord. in units of alat)
               a(1) = (   1.000000   0.000000   0.000000 )
               a(2) = (   0.000000   1.000000   0.000000 )
               a(3) = (   0.000000   0.000000   1.000000 )

     reciprocal axes: (cart. coord. in units 2 pi/alat)
               b(1) = (  1.000000  0.000000  0.000000 )
               b(2) = (  0.000000  1.000000  0.000000 )
               b(3) = (  0.000000  0.000000  1.000000 )

     PseudoPot. # 1 for Au read from file:
     ./Au.blyp-d-hgh.UPF
     MD5 check sum: c10d8bae01f806c36a1643a1c69a8479
     Pseudo is Norm-conserving, Zval = 11.0
     Generated in analytical, separable form
     Using radial grid of 1279 points,  6 beta functions with:
                l(1) =   0
                l(2) =   0
                l(3) =   1
                l(4) =   1
                l(5) =   2
                l(6) =   2

     atomic species   valence    mass     pseudopotential
        Au            11.00    28.08600     Au( 1.00)

     No symmetry found

   Cartesian axes

     site n.     atom                  positions (alat units)
         1           Au  tau(   1) = (  -0.0837253   0.0596836  -0.0307905  )
         2           Au  tau(   2) = (  -0.0481562   0.1801375   0.1895488  )
         3           Au  tau(   3) = (   0.1579204   0.0520921   0.0365272  )
         4           Au  tau(   4) = (   0.1960427   0.2134172   0.2586015  )
         5           Au  tau(   5) = (   0.3803942   0.0742532   0.1543145  )

     number of k points=     1  Marzari-Vanderbilt smearing, width (Ry)=  0.0250
                       cart. coord. in units 2pi/alat
        k(    1) = (   0.0000000   0.0000000   0.0000000), wk =   2.0000000

     Initial potential from superposition of free atoms
     Check: negative starting charge=   -0.006335

     starting charge   54.99940, renormalised to   55.00000

     negative rho (up, down):  6.335E-03 0.000E+00
     Starting wfc are   45 randomized atomic wfcs

     Self-consistent Calculation

     iteration #  1     ecut=    30.00 Ry     beta=0.70
     Davidson diagonalization with overlap
     ethr =  1.00E-02,  avg # of iterations =  3.0

     Threshold (ethr) on eigenvalues was too large:
     Diagonalizing with lowered threshold

     Davidson diagonalization with overlap
     ethr =  4.07E-04,  avg # of iterations =  6.0

     negative rho (up, down):  8.442E-04 0.000E+00

     total energy              =    -329.37659726 Ry
     Harris-Foulkes estimate   =    -329.54521704 Ry
     estimated scf accuracy    <       0.27980071 Ry

[...]

     End of self-consistent calculation

          k = 0.0000 0.0000 0.0000 ( 22119 PWs)   bands (ev):

    -8.4022  -7.7333  -7.6328  -7.1723  -6.9829  -6.7704  -6.7510  -6.4527
    -6.2622  -6.0711  -5.9862  -5.7558  -5.7175  -5.6630  -5.4183  -5.3310
    -5.3146  -5.2235  -5.1812  -5.1720  -5.1613  -5.1359  -4.9798  -4.8943
    -4.8481  -4.6754  -4.3894  -3.7881  -2.5054  -2.1396  -0.5239  -0.1911
     0.5280   0.7771

     the Fermi energy is    -3.7715 ev

!    total energy              =    -329.48790942 Ry
     Harris-Foulkes estimate   =    -329.48790942 Ry
     estimated scf accuracy    <          2.6E-09 Ry

     The total energy is the sum of the following terms:

     one-electron contribution =    -608.25180914 Ry
     hartree contribution      =     325.59601289 Ry
     xc contribution           =     -51.41449258 Ry
     ewald contribution        =       4.58336340 Ry
     smearing contrib. (-TS)   =      -0.00098397 Ry

     convergence has been achieved in  13 iterations

     Forces acting on atoms (Ry/au):

     atom    1 type  1   force =    -0.00458273   -0.00450488   -0.00801934
     atom    2 type  1   force =     0.00135633    0.00146620   -0.00054432
     atom    3 type  1   force =    -0.00261374    0.00881281    0.01203595
     atom    4 type  1   force =    -0.00063239   -0.00098239    0.00136119
     atom    5 type  1   force =     0.00647254   -0.00479174   -0.00483348

     Total force =     0.020753     Total SCF correction =     0.000238

     BFGS Geometry Optimization

     number of scf cycles    =   1
     number of bfgs steps    =   0

     energy   new            =    -329.4879094154 Ry

     new trust radius        =       0.0151446800 bohr
     new conv_thr            =       0.0000000100 Ry

ATOMIC_POSITIONS (bohr)
Au      -1.679087734   1.189167122  -0.623829341
Au      -0.961768673   3.604215198   3.790431680
Au       3.155795258   1.050653805   0.742579952
Au       3.920222610   4.267361613   5.173391192
Au       7.614356539   1.480271261   3.081457517

     Writing output data file pwscf.save
     Check: negative starting charge=   -0.006335
     NEW-OLD atomic charge density approx. for the potential
     Check: negative starting charge=   -0.006342

[...]

     energy   old            =    -329.4879094154 Ry
     energy   new            =    -329.4883233333 Ry

     CASE: energy  _new < energy  _old

     WARNING: bfgs curvature condition failed, Theta= 0.873
     new trust radius        =       0.0166591480 bohr
     new conv_thr            =       0.0000000004 Ry

[...]

     new trust radius        =       0.0593820374 bohr
     new conv_thr            =            1.0E-10 Ry

[...]

     WARNING: bfgs curvature condition failed, Theta= 0.526
     new trust radius        =       0.0338025272 bohr
     new conv_thr            =            1.0E-10 Ry

[...]

     WARNING: info= 15 for Hessian
     new trust radius        =       0.0203979072 bohr
     new conv_thr            =            1.0E-10 Ry

[...]

     Threshold (ethr) on eigenvalues was too large:
     Diagonalizing with lowered threshold

     Davidson diagonalization with overlap
     ethr =  4.72E-08,  avg # of iterations =  1.0

[...]

     Self-consistent Calculation

[...]

     total energy              =    -329.49287703 Ry
     Harris-Foulkes estimate   =    -329.49287703 Ry
     estimated scf accuracy    <          4.9E-10 Ry

     iteration # 10     ecut=    30.00 Ry     beta=0.70
     Davidson diagonalization with overlap
     ethr =  8.85E-13,  avg # of iterations =  2.0

     End of self-consistent calculation

          k = 0.0000 0.0000 0.0000 ( 22119 PWs)   bands (ev):

    -8.5044  -7.7803  -7.6476  -7.2319  -6.8388  -6.8111  -6.6105  -6.4786
    -6.3037  -6.0778  -5.9535  -5.7656  -5.7248  -5.6837  -5.4629  -5.3582
    -5.3109  -5.2519  -5.1947  -5.1813  -5.1673  -5.1184  -5.0019  -4.9264
    -4.8356  -4.7330  -4.4848  -3.7693  -2.4474  -2.2099  -0.5297  -0.1472
     0.4598   0.8027

     the Fermi energy is    -3.7349 ev

!    total energy              =    -329.49287707 Ry
     Harris-Foulkes estimate   =    -329.49287703 Ry
     estimated scf accuracy    <          4.9E-11 Ry

     The total energy is the sum of the following terms:

     one-electron contribution =    -606.14403473 Ry
     hartree contribution      =     324.50618958 Ry
     xc contribution           =     -51.39664514 Ry
     ewald contribution        =       3.54638907 Ry
     smearing contrib. (-TS)   =      -0.00477585 Ry

     convergence has been achieved in  10 iterations

     Forces acting on atoms (Ry/au):

     atom    1 type  1   force =     0.00042163    0.00008104    0.00048901
     atom    2 type  1   force =     0.00123000    0.00098765    0.00029524
     atom    3 type  1   force =    -0.00081609    0.00002146   -0.00013234
     atom    4 type  1   force =    -0.00000225    0.00081557    0.00011553
     atom    5 type  1   force =    -0.00083328   -0.00190573   -0.00076744

     Total force =     0.003046     Total SCF correction =     0.000022

     number of scf cycles    =  50
     number of bfgs steps    =  49

     energy   old            =    -329.4928715747 Ry
     energy   new            =    -329.4928770691 Ry

     CASE: energy  _new < energy  _old

     WARNING: info= 15 for Hessian
     new trust radius        =       0.0341414162 bohr
     new conv_thr            =            1.0E-10 Ry

ATOMIC_POSITIONS (bohr)
Au      -1.557607967   1.192339063  -1.016317827
Au      -0.822576302   4.101725821   3.216071067
Au       3.065057850   1.062001855   1.039266230
Au       3.822056824   4.025012504   5.547580096
Au       7.542587596   1.210589756   3.377431434

     Writing output data file pwscf.save
     Check: negative starting charge=   -0.006307
     NEW-OLD atomic charge density approx. for the potential
     Check: negative starting charge=   -0.006311

     negative rho (up, down):  3.343E-04 0.000E+00

     Writing output data file pwscf.save

     General routines

     Parallel routines

   This run was terminated on:  11:41:10   3Aug2017

   JOB DONE.