     Program PWSCF v.6.0 (svn rev. 13079) starts on  4Aug2017 at  3:54:53

     Current dimensions of program PWSCF are:
     Max number of different atomic species (ntypx) = 10
     Max number of k-points (npk) =  40000
     Max angular momentum in pseudopotentials (lmaxx) =  3
     Message from routine iosys:
     pot_extrapolation='second-order' not available, using 'atomic'
     Message from routine iosys:
     wfc_extrapolation='second-order' not available, using 'atomic'

     Subspace diagonalization in iterative solution of the eigenvalue problem:
     a serial algorithm will be used

     bravais-lattice index     =            1
     lattice parameter (alat)  =      20.0000  a.u.
     unit-cell volume          =    8000.0000 (a.u.)^3
     number of atoms/cell      =            5
     number of atomic types    =            1
     number of electrons       =        55.00
     number of Kohn-Sham states=           34
     kinetic-energy cutoff     =      30.0000  Ry
     charge density cutoff     =     120.0000  Ry
     convergence threshold     =      1.0E-08
     mixing beta               =       0.7000
     number of iterations used =            8  plain     mixing
     Exchange-correlation      = BLYP ( 1  3  1  3 0 0)
     nstep                     =           50

     celldm(1)=  20.000000  celldm(2)=   0.000000  celldm(3)=   0.000000
     celldm(4)=   0.000000  celldm(5)=   0.000000  celldm(6)=   0.000000

     crystal axes: (cart. coord. in units of alat)
               a(1) = (   1.000000   0.000000   0.000000 )
               a(2) = (   0.000000   1.000000   0.000000 )
               a(3) = (   0.000000   0.000000   1.000000 )

     reciprocal axes: (cart. coord. in units 2 pi/alat)
               b(1) = (  1.000000  0.000000  0.000000 )
               b(2) = (  0.000000  1.000000  0.000000 )
               b(3) = (  0.000000  0.000000  1.000000 )

     PseudoPot. # 1 for Au read from file:
     ./Au.blyp-d-hgh.UPF
     MD5 check sum: c10d8bae01f806c36a1643a1c69a8479
     Pseudo is Norm-conserving, Zval = 11.0
     Generated in analytical, separable form
     Using radial grid of 1279 points,  6 beta functions with:
                l(1) =   0
                l(2) =   0
                l(3) =   1
                l(4) =   1
                l(5) =   2
                l(6) =   2

     atomic species   valence    mass     pseudopotential
        Au            11.00    28.08600     Au( 1.00)

     No symmetry found

   Cartesian axes

     site n.     atom                  positions (alat units)
         1           Au  tau(   1) = (  -0.1223545   0.0959110  -0.0184264  )
         2           Au  tau(   2) = (   0.0140606   0.1678295   0.1712689  )
         3           Au  tau(   3) = (   0.1610393   0.1149304  -0.0280559  )
         4           Au  tau(   4) = (   0.2201553   0.2407430   0.2864991  )
         5           Au  tau(   5) = (   0.2823203   0.0167588   0.1781302  )

     number of k points=     1  Marzari-Vanderbilt smearing, width (Ry)=  0.0250
                       cart. coord. in units 2pi/alat
        k(    1) = (   0.0000000   0.0000000   0.0000000), wk =   2.0000000

     Initial potential from superposition of free atoms
     Check: negative starting charge=   -0.006030

     starting charge   54.99940, renormalised to   55.00000

     negative rho (up, down):  6.030E-03 0.000E+00
     Starting wfc are   45 randomized atomic wfcs

     Self-consistent Calculation

     iteration #  1     ecut=    30.00 Ry     beta=0.70
     Davidson diagonalization with overlap
     ethr =  1.00E-02,  avg # of iterations =  3.0

     Threshold (ethr) on eigenvalues was too large:
     Diagonalizing with lowered threshold

     Davidson diagonalization with overlap
     ethr =  3.86E-04,  avg # of iterations =  9.0

     negative rho (up, down):  7.983E-04 0.000E+00

     total energy              =    -329.34940002 Ry
     Harris-Foulkes estimate   =    -329.51102441 Ry
     estimated scf accuracy    <       0.27001506 Ry

[...]

     End of self-consistent calculation

          k = 0.0000 0.0000 0.0000 ( 22119 PWs)   bands (ev):

    -8.4213  -7.8298  -7.6615  -7.1565  -6.9852  -6.8090  -6.6906  -6.4478
    -6.2495  -5.9302  -5.8379  -5.7606  -5.7448  -5.6125  -5.5331  -5.4379
    -5.2732  -5.2408  -5.1576  -5.1080  -5.0878  -5.0020  -4.9483  -4.8596
    -4.7915  -4.4845  -4.3970  -3.6005  -2.7301  -2.1437  -0.2404  -0.0683
     0.2615   0.5287

     the Fermi energy is    -3.5609 ev

!    total energy              =    -329.45291504 Ry
     Harris-Foulkes estimate   =    -329.45291512 Ry
     estimated scf accuracy    <          3.9E-09 Ry

     The total energy is the sum of the following terms:

     one-electron contribution =    -611.14209951 Ry
     hartree contribution      =     327.09261160 Ry
     xc contribution           =     -51.41019646 Ry
     ewald contribution        =       6.01272971 Ry
     smearing contrib. (-TS)   =      -0.00596038 Ry

     convergence has been achieved in  12 iterations

     Forces acting on atoms (Ry/au):

     atom    1 type  1   force =     0.00079874   -0.00109642   -0.02018577
     atom    2 type  1   force =    -0.00922804    0.00691748    0.01781291
     atom    3 type  1   force =    -0.00846001   -0.01810108   -0.01153162
     atom    4 type  1   force =     0.01594182    0.00462995    0.01979469
     atom    5 type  1   force =     0.00094749    0.00765007   -0.00589021

     Total force =     0.046404     Total SCF correction =     0.000230

     BFGS Geometry Optimization

     number of scf cycles    =   1
     number of bfgs steps    =   0

     energy   new            =    -329.4529150396 Ry

     new trust radius        =       0.0258342409 bohr
     new conv_thr            =       0.0000000100 Ry

ATOMIC_POSITIONS (bohr)
Au      -2.446290258   1.917123583  -0.388713771
Au       0.271984960   3.363508482   3.443190906
Au       3.212326990   2.280505917  -0.572648616
Au       4.419047822   4.819488950   5.749776693
Au       5.647354485   0.342827068   3.556712789

     Writing output data file pwscf.save
     Check: negative starting charge=   -0.006030
     NEW-OLD atomic charge density approx. for the potential
     Check: negative starting charge=   -0.006030

[...]

     energy   old            =    -329.4529150396 Ry
     energy   new            =    -329.4549097958 Ry

     CASE: energy  _new < energy  _old

     WARNING: bfgs curvature condition failed, Theta= 0.940
     new trust radius        =       0.0284176650 bohr
     new conv_thr            =       0.0000000018 Ry

[...]

     WARNING: bfgs curvature condition failed, Theta= 0.983
     new trust radius        =       0.0240330605 bohr
     new conv_thr            =       0.0000000007 Ry

[...]

     iteration #  1     ecut=    30.00 Ry     beta=0.70
     Davidson diagonalization with overlap
     c_bands:  1 eigenvalues not converged
     ethr =  1.00E-06,  avg # of iterations = 20.0

[...]

     WARNING: bfgs curvature condition failed, Theta= 0.660
     uphill step: resetting bfgs history

[...]

     CASE: energy  _new > energy  _old

[...]

     Threshold (ethr) on eigenvalues was too large:
     Diagonalizing with lowered threshold

     Davidson diagonalization with overlap
     ethr =  8.32E-08,  avg # of iterations =  1.0

[...]

     Self-consistent Calculation

[...]

     total energy              =    -329.49392749 Ry
     Harris-Foulkes estimate   =    -329.49392749 Ry
     estimated scf accuracy    <          2.4E-10 Ry

     iteration # 10     ecut=    30.00 Ry     beta=0.70
     Davidson diagonalization with overlap
     ethr =  4.30E-13,  avg # of iterations =  2.0

     End of self-consistent calculation

          k = 0.0000 0.0000 0.0000 ( 22119 PWs)   bands (ev):

    -8.4809  -7.7596  -7.6495  -7.2318  -6.8613  -6.7953  -6.5940  -6.4695
    -6.3167  -6.0589  -5.9435  -5.7590  -5.7159  -5.6752  -5.4470  -5.3591
    -5.3133  -5.2405  -5.1960  -5.1792  -5.1637  -5.1210  -4.9951  -4.9193
    -4.8467  -4.7267  -4.4793  -3.7611  -2.3987  -2.2203  -0.5099  -0.1767
     0.4000   0.7367

     the Fermi energy is    -3.7264 ev

!    total energy              =    -329.49392746 Ry
     Harris-Foulkes estimate   =    -329.49392749 Ry
     estimated scf accuracy    <          6.1E-11 Ry

     The total energy is the sum of the following terms:

     one-electron contribution =    -603.43788748 Ry
     hartree contribution      =     323.16310876 Ry
     xc contribution           =     -51.39544039 Ry
     ewald contribution        =       2.18115749 Ry
     smearing contrib. (-TS)   =      -0.00486584 Ry

     convergence has been achieved in  10 iterations

     Forces acting on atoms (Ry/au):

     atom    1 type  1   force =     0.00146739    0.00060250    0.00143471
     atom    2 type  1   force =    -0.00044558    0.00013947   -0.00104302
     atom    3 type  1   force =    -0.00170075   -0.00044902   -0.00049588
     atom    4 type  1   force =     0.00007847   -0.00008595   -0.00083812
     atom    5 type  1   force =     0.00060047   -0.00020700    0.00094231

     Total force =     0.003351     Total SCF correction =     0.000033

     number of scf cycles    =  50
     number of bfgs steps    =  48

     energy   old            =    -329.4938950887 Ry
     energy   new            =    -329.4939274639 Ry

     CASE: energy  _new < energy  _old

     new trust radius        =       0.0066964684 bohr
     new conv_thr            =            1.0E-10 Ry

ATOMIC_POSITIONS (bohr)
Au      -2.207598147   2.405049859  -0.592579368
Au       0.807585426   3.647784842   3.269460070
Au       2.525109487   0.355091978  -0.790517799
Au       4.197152500   4.687615197   6.879151864
Au       5.782174734   1.627912124   3.022803232

     Writing output data file pwscf.save
     Check: negative starting charge=   -0.006179
     NEW-OLD atomic charge density approx. for the potential
     Check: negative starting charge=   -0.006185

     negative rho (up, down):  3.403E-06 0.000E+00

     Writing output data file pwscf.save

     General routines

     Parallel routines

   This run was terminated on:   3:57: 4   4Aug2017

   JOB DONE.