     Program PWSCF v.6.0 (svn rev. 13079) starts on  4Aug2017 at  3:22: 8

     Current dimensions of program PWSCF are:
     Max number of different atomic species (ntypx) = 10
     Max number of k-points (npk) =  40000
     Max angular momentum in pseudopotentials (lmaxx) =  3
     Message from routine iosys:
     pot_extrapolation='second-order' not available, using 'atomic'
     Message from routine iosys:
     wfc_extrapolation='second-order' not available, using 'atomic'

     Subspace diagonalization in iterative solution of the eigenvalue problem:
     a serial algorithm will be used

     bravais-lattice index     =            1
     lattice parameter (alat)  =      20.0000  a.u.
     unit-cell volume          =    8000.0000 (a.u.)^3
     number of atoms/cell      =            5
     number of atomic types    =            1
     number of electrons       =        55.00
     number of Kohn-Sham states=           34
     kinetic-energy cutoff     =      30.0000  Ry
     charge density cutoff     =     120.0000  Ry
     convergence threshold     =      1.0E-08
     mixing beta               =       0.7000
     number of iterations used =            8  plain     mixing
     Exchange-correlation      = BLYP ( 1  3  1  3 0 0)
     nstep                     =           50

     celldm(1)=  20.000000  celldm(2)=   0.000000  celldm(3)=   0.000000
     celldm(4)=   0.000000  celldm(5)=   0.000000  celldm(6)=   0.000000

     crystal axes: (cart. coord. in units of alat)
               a(1) = (   1.000000   0.000000   0.000000 )
               a(2) = (   0.000000   1.000000   0.000000 )
               a(3) = (   0.000000   0.000000   1.000000 )

     reciprocal axes: (cart. coord. in units 2 pi/alat)
               b(1) = (  1.000000  0.000000  0.000000 )
               b(2) = (  0.000000  1.000000  0.000000 )
               b(3) = (  0.000000  0.000000  1.000000 )

     PseudoPot. # 1 for Au read from file:
     ./Au.blyp-d-hgh.UPF
     MD5 check sum: c10d8bae01f806c36a1643a1c69a8479
     Pseudo is Norm-conserving, Zval = 11.0
     Generated in analytical, separable form
     Using radial grid of 1279 points,  6 beta functions with:
                l(1) =   0
                l(2) =   0
                l(3) =   1
                l(4) =   1
                l(5) =   2
                l(6) =   2

     atomic species   valence    mass     pseudopotential
        Au            11.00    28.08600     Au( 1.00)

     No symmetry found

   Cartesian axes

     site n.     atom                  positions (alat units)
         1           Au  tau(   1) = (  -0.1041611   0.0506732  -0.0176639  )
         2           Au  tau(   2) = (   0.0062686   0.1209380   0.2100729  )
         3           Au  tau(   3) = (   0.1399810   0.0728345   0.0072436  )
         4           Au  tau(   4) = (   0.2221802   0.2375595   0.2922938  )
         5           Au  tau(   5) = (   0.3347367   0.0501672   0.1491925  )

     number of k points=     1  Marzari-Vanderbilt smearing, width (Ry)=  0.0250
                       cart. coord. in units 2pi/alat
        k(    1) = (   0.0000000   0.0000000   0.0000000), wk =   2.0000000

     Initial potential from superposition of free atoms
     Check: negative starting charge=   -0.006283

     starting charge   54.99940, renormalised to   55.00000

     negative rho (up, down):  6.283E-03 0.000E+00
     Starting wfc are   45 randomized atomic wfcs

     Self-consistent Calculation

     iteration #  1     ecut=    30.00 Ry     beta=0.70
     Davidson diagonalization with overlap
     ethr =  1.00E-02,  avg # of iterations =  3.0

     Threshold (ethr) on eigenvalues was too large:
     Diagonalizing with lowered threshold

     Davidson diagonalization with overlap
     ethr =  4.04E-04,  avg # of iterations =  7.0

     negative rho (up, down):  8.202E-04 0.000E+00

     total energy              =    -329.35551080 Ry
     Harris-Foulkes estimate   =    -329.52128048 Ry
     estimated scf accuracy    <       0.27786918 Ry

[...]

     End of self-consistent calculation

          k = 0.0000 0.0000 0.0000 ( 22119 PWs)   bands (ev):

    -8.4951  -7.8797  -7.7298  -7.2929  -6.9570  -6.8928  -6.6978  -6.4635
    -6.2783  -5.9654  -5.8760  -5.7928  -5.7430  -5.5762  -5.5321  -5.4820
    -5.2264  -5.1819  -5.1589  -5.1318  -5.1112  -4.9919  -4.9502  -4.8948
    -4.7878  -4.5718  -4.2821  -3.6802  -2.4770  -2.1668  -0.3836  -0.1484
     0.3969   0.5398

     the Fermi energy is    -3.6629 ev

!    total energy              =    -329.46417604 Ry
     Harris-Foulkes estimate   =    -329.46417607 Ry
     estimated scf accuracy    <          3.9E-09 Ry

     The total energy is the sum of the following terms:

     one-electron contribution =    -612.77131616 Ry
     hartree contribution      =     327.89181793 Ry
     xc contribution           =     -51.44624456 Ry
     ewald contribution        =       6.86274330 Ry
     smearing contrib. (-TS)   =      -0.00117655 Ry

     convergence has been achieved in  11 iterations

     Forces acting on atoms (Ry/au):

     atom    1 type  1   force =    -0.02278799   -0.00006765    0.00182688
     atom    2 type  1   force =    -0.01593815    0.01442208    0.01727353
     atom    3 type  1   force =     0.00778344   -0.00877104   -0.04295171
     atom    4 type  1   force =    -0.00264888   -0.01242747   -0.00179852
     atom    5 type  1   force =     0.03359157    0.00684408    0.02564983

     Total force =     0.072548     Total SCF correction =     0.000320

     BFGS Geometry Optimization

     number of scf cycles    =   1
     number of bfgs steps    =   0

     energy   new            =    -329.4641760416 Ry

     new trust radius        =       0.0445237332 bohr
     new conv_thr            =       0.0000000100 Ry

ATOMIC_POSITIONS (bohr)
Au      -2.106009988   1.013395350  -0.351450122
Au       0.109433848   2.433181077   4.218732526
Au       2.807403444   1.447918965   0.101921286
Au       4.440954125   4.738761528   5.844076484
Au       6.728325572   1.010187079   3.009499827

     Writing output data file pwscf.save
     Check: negative starting charge=   -0.006283
     NEW-OLD atomic charge density approx. for the potential
     Check: negative starting charge=   -0.006258

[...]

     energy   old            =    -329.4641760416 Ry
     energy   new            =    -329.4686328463 Ry

     CASE: energy  _new < energy  _old

[...]

     WARNING: bfgs curvature condition failed, Theta= 0.951
     new trust radius        =       0.1251480724 bohr
     new conv_thr            =       0.0000000003 Ry

[...]

     iteration #  1     ecut=    30.00 Ry     beta=0.70
     Davidson diagonalization with overlap
     c_bands:  1 eigenvalues not converged
     ethr =  1.00E-06,  avg # of iterations = 20.0

[...]

     WARNING: bfgs curvature condition failed, Theta= 0.011
     new trust radius        =       0.2815831628 bohr
     new conv_thr            =       0.0000000013 Ry

[...]

     CASE: energy  _new > energy  _old

[...]

     iteration #  1     ecut=    30.00 Ry     beta=0.70
     Davidson diagonalization with overlap
     c_bands:  1 eigenvalues not converged
     ethr =  1.00E-06,  avg # of iterations = 20.0

[...]

     Threshold (ethr) on eigenvalues was too large:
     Diagonalizing with lowered threshold

     Davidson diagonalization with overlap
     ethr =  5.99E-08,  avg # of iterations =  1.0

[...]

     Self-consistent Calculation

[...]

     total energy              =    -329.49109114 Ry
     Harris-Foulkes estimate   =    -329.49109114 Ry
     estimated scf accuracy    <          9.7E-10 Ry

     iteration # 10     ecut=    30.00 Ry     beta=0.70
     Davidson diagonalization with overlap
     ethr =  1.76E-12,  avg # of iterations =  2.0

     End of self-consistent calculation

          k = 0.0000 0.0000 0.0000 ( 22119 PWs)   bands (ev):

    -8.4714  -7.7612  -7.6396  -7.2341  -6.8807  -6.7884  -6.6302  -6.4719
    -6.3003  -6.0477  -5.9677  -5.7619  -5.7217  -5.6846  -5.4437  -5.3818
    -5.3198  -5.2379  -5.2055  -5.1917  -5.1680  -5.1258  -5.0078  -4.9250
    -4.8480  -4.7220  -4.4673  -3.7814  -2.5139  -2.1980  -0.5536  -0.1763
     0.4829   0.8815

     the Fermi energy is    -3.7508 ev

!    total energy              =    -329.49109114 Ry
     Harris-Foulkes estimate   =    -329.49109114 Ry
     estimated scf accuracy    <          9.4E-11 Ry

     The total energy is the sum of the following terms:

     one-electron contribution =    -608.26304505 Ry
     hartree contribution      =     325.56922488 Ry
     xc contribution           =     -51.39958610 Ry
     ewald contribution        =       4.60623716 Ry
     smearing contrib. (-TS)   =      -0.00392202 Ry

     convergence has been achieved in  10 iterations

     Forces acting on atoms (Ry/au):

     atom    1 type  1   force =     0.00103179   -0.00021898    0.00050941
     atom    2 type  1   force =    -0.00004196   -0.00093425   -0.00235282
     atom    3 type  1   force =    -0.00158127    0.00112307    0.00156634
     atom    4 type  1   force =     0.00006669   -0.00013235    0.00083142
     atom    5 type  1   force =     0.00052475    0.00016251   -0.00055434

     Total force =     0.003914     Total SCF correction =     0.000035

     number of scf cycles    =  50
     number of bfgs steps    =  48

     energy   old            =    -329.4910356516 Ry
     energy   new            =    -329.4910911367 Ry

     CASE: energy  _new < energy  _old

     new trust radius        =       0.0092543796 bohr
     new conv_thr            =            1.0E-10 Ry

ATOMIC_POSITIONS (bohr)
Au      -1.867950223   0.992635087  -0.512507796
Au      -0.861613694   3.116046425   4.106042789
Au       2.995846299   1.105108336   0.905475357
Au       4.033422038   3.841731879   5.572281137
Au       7.680402580   1.587922273   2.751488513

     Writing output data file pwscf.save
     Check: negative starting charge=   -0.006420
     NEW-OLD atomic charge density approx. for the potential
     Check: negative starting charge=   -0.006431

     negative rho (up, down):  5.119E-06 0.000E+00

     Writing output data file pwscf.save

     General routines

     Parallel routines

   This run was terminated on:   3:24:27   4Aug2017

   JOB DONE.