     Program PWSCF v.6.0 (svn rev. 13079) starts on  3Aug2017 at 19:38: 1

     Current dimensions of program PWSCF are:
     Max number of different atomic species (ntypx) = 10
     Max number of k-points (npk) =  40000
     Max angular momentum in pseudopotentials (lmaxx) =  3
     Message from routine iosys:
     pot_extrapolation='second-order' not available, using 'atomic'
     Message from routine iosys:
     wfc_extrapolation='second-order' not available, using 'atomic'

     Subspace diagonalization in iterative solution of the eigenvalue problem:
     a serial algorithm will be used

     bravais-lattice index     =            1
     lattice parameter (alat)  =      20.0000  a.u.
     unit-cell volume          =    8000.0000 (a.u.)^3
     number of atoms/cell      =            5
     number of atomic types    =            1
     number of electrons       =        55.00
     number of Kohn-Sham states=           34
     kinetic-energy cutoff     =      30.0000  Ry
     charge density cutoff     =     120.0000  Ry
     convergence threshold     =      1.0E-08
     mixing beta               =       0.7000
     number of iterations used =            8  plain     mixing
     Exchange-correlation      = BLYP ( 1  3  1  3 0 0)
     nstep                     =           50

     celldm(1)=  20.000000  celldm(2)=   0.000000  celldm(3)=   0.000000
     celldm(4)=   0.000000  celldm(5)=   0.000000  celldm(6)=   0.000000

     crystal axes: (cart. coord. in units of alat)
               a(1) = (   1.000000   0.000000   0.000000 )
               a(2) = (   0.000000   1.000000   0.000000 )
               a(3) = (   0.000000   0.000000   1.000000 )

     reciprocal axes: (cart. coord. in units 2 pi/alat)
               b(1) = (  1.000000  0.000000  0.000000 )
               b(2) = (  0.000000  1.000000  0.000000 )
               b(3) = (  0.000000  0.000000  1.000000 )

     PseudoPot. # 1 for Au read from file:
     ./Au.blyp-d-hgh.UPF
     MD5 check sum: c10d8bae01f806c36a1643a1c69a8479
     Pseudo is Norm-conserving, Zval = 11.0
     Generated in analytical, separable form
     Using radial grid of 1279 points,  6 beta functions with:
                l(1) =   0
                l(2) =   0
                l(3) =   1
                l(4) =   1
                l(5) =   2
                l(6) =   2

     atomic species   valence    mass     pseudopotential
        Au            11.00    28.08600     Au( 1.00)

     No symmetry found

   Cartesian axes

     site n.     atom                  positions (alat units)
         1           Au  tau(   1) = (  -0.0980787   0.1198433  -0.0303565  )
         2           Au  tau(   2) = (  -0.0396944   0.1741480   0.2113552  )
         3           Au  tau(   3) = (   0.1480744   0.0964797   0.0215584  )
         4           Au  tau(   4) = (   0.2041615   0.1990536   0.2818085  )
         5           Au  tau(   5) = (   0.3755718   0.0887708   0.1286416  )

     number of k points=     1  Marzari-Vanderbilt smearing, width (Ry)=  0.0250
                       cart. coord. in units 2pi/alat
        k(    1) = (   0.0000000   0.0000000   0.0000000), wk =   2.0000000

     Initial potential from superposition of free atoms
     Check: negative starting charge=   -0.006424

     starting charge   54.99940, renormalised to   55.00000

     negative rho (up, down):  6.424E-03 0.000E+00
     Starting wfc are   45 randomized atomic wfcs

     Self-consistent Calculation

     iteration #  1     ecut=    30.00 Ry     beta=0.70
     Davidson diagonalization with overlap
     ethr =  1.00E-02,  avg # of iterations =  3.0

     Threshold (ethr) on eigenvalues was too large:
     Diagonalizing with lowered threshold

     Davidson diagonalization with overlap
     ethr =  4.00E-04,  avg # of iterations =  6.0

     negative rho (up, down):  8.812E-04 0.000E+00

     total energy              =    -329.37780000 Ry
     Harris-Foulkes estimate   =    -329.54479998 Ry
     estimated scf accuracy    <       0.27766304 Ry

[...]

     End of self-consistent calculation

          k = 0.0000 0.0000 0.0000 ( 22119 PWs)   bands (ev):

    -8.3926  -7.7141  -7.6283  -7.1721  -6.9753  -6.7517  -6.7353  -6.4387
    -6.2629  -6.0463  -5.9793  -5.7552  -5.7119  -5.6658  -5.4298  -5.3333
    -5.3209  -5.2229  -5.1835  -5.1767  -5.1671  -5.1356  -4.9843  -4.8996
    -4.8472  -4.6848  -4.3917  -3.8001  -2.5056  -2.1621  -0.5336  -0.2366
     0.5196   0.8041

     the Fermi energy is    -3.7852 ev

!    total energy              =    -329.48789116 Ry
     Harris-Foulkes estimate   =    -329.48789118 Ry
     estimated scf accuracy    <          2.3E-09 Ry

     The total energy is the sum of the following terms:

     one-electron contribution =    -608.73177477 Ry
     hartree contribution      =     325.83906623 Ry
     xc contribution           =     -51.41242534 Ry
     ewald contribution        =       4.81788025 Ry
     smearing contrib. (-TS)   =      -0.00063754 Ry

     convergence has been achieved in  13 iterations

     Forces acting on atoms (Ry/au):

     atom    1 type  1   force =    -0.00182578   -0.00098209   -0.00526077
     atom    2 type  1   force =    -0.00282833    0.00090162   -0.00353906
     atom    3 type  1   force =    -0.00434146    0.00527215    0.01342336
     atom    4 type  1   force =     0.00551095   -0.00306146   -0.00175594
     atom    5 type  1   force =     0.00348462   -0.00213022   -0.00286759

     Total force =     0.018651     Total SCF correction =     0.000211

     BFGS Geometry Optimization

     number of scf cycles    =   1
     number of bfgs steps    =   0

     energy   new            =    -329.4878911614 Ry

     new trust radius        =       0.0150608873 bohr
     new conv_thr            =       0.0000000100 Ry

ATOMIC_POSITIONS (bohr)
Au      -1.963399784   2.395883912  -0.612391767
Au      -0.796715331   3.483862623   4.223565940
Au       2.957147538   1.934866148   0.444591356
Au       4.088740953   3.978011536   5.634414056
Au       7.514921623   1.773285781   2.569964414

     Writing output data file pwscf.save
     Check: negative starting charge=   -0.006424
     NEW-OLD atomic charge density approx. for the potential
     Check: negative starting charge=   -0.006421

[...]

     energy   old            =    -329.4878911614 Ry
     energy   new            =    -329.4882284626 Ry

     CASE: energy  _new < energy  _old

     WARNING: bfgs curvature condition failed, Theta= 0.854
     new trust radius        =       0.0165669760 bohr
     new conv_thr            =       0.0000000003 Ry

[...]

     WARNING: info= 13 for Hessian
     new trust radius        =       0.0091354267 bohr
     new conv_thr            =            1.0E-10 Ry

[...]

     CASE: energy  _new > energy  _old

[...]

     WARNING: info= 11 for Hessian
     uphill step: resetting bfgs history

[...]

     WARNING: bfgs curvature condition failed, Theta= 0.127
     new trust radius        =       0.0391461602 bohr
     new conv_thr            =            1.0E-10 Ry

[...]

     CASE: energy  _new > energy  _old

[...]

     Self-consistent Calculation

[...]

     Threshold (ethr) on eigenvalues was too large:
     Diagonalizing with lowered threshold

     Davidson diagonalization with overlap
     ethr =  1.89E-08,  avg # of iterations =  2.0

[...]

     total energy              =    -329.49226083 Ry
     Harris-Foulkes estimate   =    -329.49226083 Ry
     estimated scf accuracy    <          1.7E-10 Ry

     iteration #  9     ecut=    30.00 Ry     beta=0.70
     Davidson diagonalization with overlap
     ethr =  3.03E-13,  avg # of iterations =  3.0

     End of self-consistent calculation

          k = 0.0000 0.0000 0.0000 ( 22119 PWs)   bands (ev):

    -8.5140  -7.7869  -7.6630  -7.2407  -6.8870  -6.8194  -6.6007  -6.4932
    -6.3115  -6.0757  -5.9576  -5.7721  -5.7311  -5.6831  -5.4546  -5.3645
    -5.3187  -5.2434  -5.2024  -5.1887  -5.1664  -5.1255  -5.0051  -4.9291
    -4.8685  -4.7000  -4.4893  -3.7767  -2.4695  -2.1950  -0.5507  -0.2021
     0.4789   0.8368

     the Fermi energy is    -3.7432 ev

!    total energy              =    -329.49226084 Ry
     Harris-Foulkes estimate   =    -329.49226083 Ry
     estimated scf accuracy    <          3.5E-11 Ry

     The total energy is the sum of the following terms:

     one-electron contribution =    -608.25524105 Ry
     hartree contribution      =     325.55301670 Ry
     xc contribution           =     -51.40062368 Ry
     ewald contribution        =       4.61512227 Ry
     smearing contrib. (-TS)   =      -0.00453507 Ry

     convergence has been achieved in   9 iterations

     Forces acting on atoms (Ry/au):

     atom    1 type  1   force =    -0.00055404    0.00129340   -0.00062430
     atom    2 type  1   force =    -0.00068161    0.00089794   -0.00004176
     atom    3 type  1   force =     0.00204120   -0.00258500    0.00077506
     atom    4 type  1   force =    -0.00008872    0.00018101   -0.00020735
     atom    5 type  1   force =    -0.00071682    0.00021265    0.00009834

     Total force =     0.003968     Total SCF correction =     0.000024

     number of scf cycles    =  50
     number of bfgs steps    =  47

     energy   old            =    -329.4922403002 Ry
     energy   new            =    -329.4922608352 Ry

     CASE: energy  _new < energy  _old

     new trust radius        =       0.0108396304 bohr
     new conv_thr            =            1.0E-10 Ry

ATOMIC_POSITIONS (bohr)
Au      -1.953575395   2.619592646  -0.795718942
Au      -0.662938293   4.184072868   3.978495220
Au       2.841908192   1.988961956   0.645149860
Au       4.098080027   3.414221003   5.855377544
Au       7.477220468   1.359061527   2.576840317

     Writing output data file pwscf.save
     Check: negative starting charge=   -0.006429
     NEW-OLD atomic charge density approx. for the potential
     Check: negative starting charge=   -0.006427

     negative rho (up, down):  6.935E-06 0.000E+00

     Writing output data file pwscf.save

     General routines

     Parallel routines

   This run was terminated on:  19:40:10   3Aug2017

   JOB DONE.