     Program PWSCF v.6.0 (svn rev. 13079) starts on  4Aug2017 at  2:54:53

     Current dimensions of program PWSCF are:
     Max number of different atomic species (ntypx) = 10
     Max number of k-points (npk) =  40000
     Max angular momentum in pseudopotentials (lmaxx) =  3
     Message from routine iosys:
     pot_extrapolation='second-order' not available, using 'atomic'
     Message from routine iosys:
     wfc_extrapolation='second-order' not available, using 'atomic'

     Subspace diagonalization in iterative solution of the eigenvalue problem:
     a serial algorithm will be used

     bravais-lattice index     =            1
     lattice parameter (alat)  =      20.0000  a.u.
     unit-cell volume          =    8000.0000 (a.u.)^3
     number of atoms/cell      =            5
     number of atomic types    =            1
     number of electrons       =        55.00
     number of Kohn-Sham states=           34
     kinetic-energy cutoff     =      30.0000  Ry
     charge density cutoff     =     120.0000  Ry
     convergence threshold     =      1.0E-08
     mixing beta               =       0.7000
     number of iterations used =            8  plain     mixing
     Exchange-correlation      = BLYP ( 1  3  1  3 0 0)
     nstep                     =           50

     celldm(1)=  20.000000  celldm(2)=   0.000000  celldm(3)=   0.000000
     celldm(4)=   0.000000  celldm(5)=   0.000000  celldm(6)=   0.000000

     crystal axes: (cart. coord. in units of alat)
               a(1) = (   1.000000   0.000000   0.000000 )
               a(2) = (   0.000000   1.000000   0.000000 )
               a(3) = (   0.000000   0.000000   1.000000 )

     reciprocal axes: (cart. coord. in units 2 pi/alat)
               b(1) = (  1.000000  0.000000  0.000000 )
               b(2) = (  0.000000  1.000000  0.000000 )
               b(3) = (  0.000000  0.000000  1.000000 )

     PseudoPot. # 1 for Au read from file:
     ./Au.blyp-d-hgh.UPF
     MD5 check sum: c10d8bae01f806c36a1643a1c69a8479
     Pseudo is Norm-conserving, Zval = 11.0
     Generated in analytical, separable form
     Using radial grid of 1279 points,  6 beta functions with:
                l(1) =   0
                l(2) =   0
                l(3) =   1
                l(4) =   1
                l(5) =   2
                l(6) =   2

     atomic species   valence    mass     pseudopotential
        Au            11.00    28.08600     Au( 1.00)

     No symmetry found

   Cartesian axes

     site n.     atom                  positions (alat units)
         1           Au  tau(   1) = (  -0.1034860   0.1368294  -0.0364742  )
         2           Au  tau(   2) = (   0.0103824   0.1581773   0.1990294  )
         3           Au  tau(   3) = (   0.1511463   0.1289888  -0.0113900  )
         4           Au  tau(   4) = (   0.2386858   0.2494133   0.2841210  )
         5           Au  tau(   5) = (   0.3083364   0.0348120   0.1525406  )

     number of k points=     1  Marzari-Vanderbilt smearing, width (Ry)=  0.0250
                       cart. coord. in units 2pi/alat
        k(    1) = (   0.0000000   0.0000000   0.0000000), wk =   2.0000000

     Initial potential from superposition of free atoms
     Check: negative starting charge=   -0.006127

     starting charge   54.99940, renormalised to   55.00000

     negative rho (up, down):  6.127E-03 0.000E+00
     Starting wfc are   45 randomized atomic wfcs

     Self-consistent Calculation

     iteration #  1     ecut=    30.00 Ry     beta=0.70
     Davidson diagonalization with overlap
     ethr =  1.00E-02,  avg # of iterations =  3.0

     Threshold (ethr) on eigenvalues was too large:
     Diagonalizing with lowered threshold

     Davidson diagonalization with overlap
     ethr =  3.52E-04,  avg # of iterations =  8.0

     negative rho (up, down):  8.131E-04 0.000E+00

     total energy              =    -329.36530779 Ry
     Harris-Foulkes estimate   =    -329.51387555 Ry
     estimated scf accuracy    <       0.25154170 Ry

[...]

     End of self-consistent calculation

          k = 0.0000 0.0000 0.0000 ( 22119 PWs)   bands (ev):

    -8.2513  -7.7865  -7.5579  -7.2219  -6.9757  -6.7695  -6.6760  -6.4812
    -6.3272  -5.8819  -5.8097  -5.7746  -5.6595  -5.5900  -5.5203  -5.4929
    -5.2619  -5.2055  -5.1735  -5.1214  -5.0957  -5.0303  -4.9972  -4.9295
    -4.8137  -4.4946  -4.4094  -3.6210  -2.5069  -2.3746  -0.2782  -0.0785
     0.3137   0.4549

     the Fermi energy is    -3.5822 ev

!    total energy              =    -329.46074752 Ry
     Harris-Foulkes estimate   =    -329.46074763 Ry
     estimated scf accuracy    <          3.5E-09 Ry

     The total energy is the sum of the following terms:

     one-electron contribution =    -609.42050702 Ry
     hartree contribution      =     326.23229381 Ry
     xc contribution           =     -51.39593690 Ry
     ewald contribution        =       5.12915836 Ry
     smearing contrib. (-TS)   =      -0.00575578 Ry

     convergence has been achieved in  11 iterations

     Forces acting on atoms (Ry/au):

     atom    1 type  1   force =     0.00377286    0.00286131    0.00699725
     atom    2 type  1   force =    -0.00415724    0.01224097    0.00220954
     atom    3 type  1   force =    -0.01117835   -0.00254065   -0.02697304
     atom    4 type  1   force =    -0.00925403   -0.01360187    0.00102447
     atom    5 type  1   force =     0.02081676    0.00104024    0.01674178

     Total force =     0.045703     Total SCF correction =     0.000268

     BFGS Geometry Optimization

     number of scf cycles    =   1
     number of bfgs steps    =   0

     energy   new            =    -329.4607475153 Ry

     new trust radius        =       0.0293079393 bohr
     new conv_thr            =       0.0000000100 Ry

ATOMIC_POSITIONS (bohr)
Au      -2.065947143   2.739449307  -0.722486751
Au       0.203489761   3.175786974   3.982797539
Au       3.011747648   2.577235348  -0.254773039
Au       4.764461970   4.974665129   5.683444466
Au       6.187544765   0.697279241   3.067553784

     Writing output data file pwscf.save
     Check: negative starting charge=   -0.006127
     NEW-OLD atomic charge density approx. for the potential
     Check: negative starting charge=   -0.006104

[...]

     energy   old            =    -329.4607475153 Ry
     energy   new            =    -329.4625714877 Ry

     CASE: energy  _new < energy  _old

[...]

     iteration #  1     ecut=    30.00 Ry     beta=0.70
     Davidson diagonalization with overlap
     c_bands:  1 eigenvalues not converged
     ethr =  1.00E-06,  avg # of iterations = 20.0

[...]

     WARNING: bfgs curvature condition failed, Theta= 0.843
     new trust radius        =       0.0263085921 bohr
     new conv_thr            =            1.0E-10 Ry

[...]

     WARNING: bfgs curvature condition failed, Theta= 0.544
     uphill step: resetting bfgs history

[...]

     WARNING: info=  6 for Hessian
     uphill step: resetting bfgs history

[...]

     WARNING: bfgs curvature condition failed, Theta= 0.920
     new trust radius        =       0.0083671882 bohr
     new conv_thr            =       0.0000000002 Ry

[...]

     Threshold (ethr) on eigenvalues was too large:
     Diagonalizing with lowered threshold

     Davidson diagonalization with overlap
     ethr =  8.85E-08,  avg # of iterations =  1.0

[...]

     Self-consistent Calculation

[...]

     total energy              =    -329.49066833 Ry
     Harris-Foulkes estimate   =    -329.49066832 Ry
     estimated scf accuracy    <          4.9E-10 Ry

     iteration # 10     ecut=    30.00 Ry     beta=0.70
     Davidson diagonalization with overlap
     ethr =  8.91E-13,  avg # of iterations =  2.0

     End of self-consistent calculation

          k = 0.0000 0.0000 0.0000 ( 22119 PWs)   bands (ev):

    -8.4263  -7.7173  -7.6414  -7.2356  -7.1300  -6.7734  -6.5799  -6.4681
    -6.3426  -6.0337  -5.9910  -5.7260  -5.6817  -5.6584  -5.4147  -5.3772
    -5.3147  -5.2469  -5.2213  -5.2033  -5.1501  -5.1161  -4.9784  -4.9687
    -4.8829  -4.5529  -4.5011  -3.7710  -2.4644  -2.1318  -0.5064  -0.2134
     0.3799   0.7619

     the Fermi energy is    -3.7417 ev

!    total energy              =    -329.49066832 Ry
     Harris-Foulkes estimate   =    -329.49066833 Ry
     estimated scf accuracy    <          4.0E-11 Ry

     The total energy is the sum of the following terms:

     one-electron contribution =    -604.05947305 Ry
     hartree contribution      =     323.47508969 Ry
     xc contribution           =     -51.40290176 Ry
     ewald contribution        =       2.49999260 Ry
     smearing contrib. (-TS)   =      -0.00337579 Ry

     convergence has been achieved in  10 iterations

     Forces acting on atoms (Ry/au):

     atom    1 type  1   force =    -0.00139559    0.00147229    0.00001601
     atom    2 type  1   force =     0.00254870   -0.00050469   -0.00028678
     atom    3 type  1   force =     0.00102368   -0.00449586   -0.00411455
     atom    4 type  1   force =     0.00098898    0.00181689    0.00219809
     atom    5 type  1   force =    -0.00316577    0.00171137    0.00218723

     Total force =     0.008717     Total SCF correction =     0.000021

     number of scf cycles    =  50
     number of bfgs steps    =  49

     energy   old            =    -329.4904341695 Ry
     energy   new            =    -329.4906683209 Ry

     CASE: energy  _new < energy  _old

     new trust radius        =       0.0381159238 bohr
     new conv_thr            =       0.0000000002 Ry

ATOMIC_POSITIONS (bohr)
Au      -1.999302733   3.165920163  -0.819525532
Au       0.853208492   4.041751693   3.289708636
Au       2.719221424   1.201224918  -0.653071993
Au       4.327545405   4.324837345   6.882152643
Au       6.200624412   1.430681881   3.057272246

     Writing output data file pwscf.save
     Check: negative starting charge=   -0.006223
     NEW-OLD atomic charge density approx. for the potential
     Check: negative starting charge=   -0.006230

     negative rho (up, down):  3.523E-04 0.000E+00

     Writing output data file pwscf.save

     General routines

     Parallel routines

   This run was terminated on:   2:57: 5   4Aug2017

   JOB DONE.