     Program PWSCF v.6.0 (svn rev. 13079) starts on  4Aug2017 at  6: 4: 2

     Current dimensions of program PWSCF are:
     Max number of different atomic species (ntypx) = 10
     Max number of k-points (npk) =  40000
     Max angular momentum in pseudopotentials (lmaxx) =  3
     Message from routine iosys:
     pot_extrapolation='second-order' not available, using 'atomic'
     Message from routine iosys:
     wfc_extrapolation='second-order' not available, using 'atomic'

     Subspace diagonalization in iterative solution of the eigenvalue problem:
     a serial algorithm will be used

     bravais-lattice index     =            1
     lattice parameter (alat)  =      20.0000  a.u.
     unit-cell volume          =    8000.0000 (a.u.)^3
     number of atoms/cell      =            5
     number of atomic types    =            1
     number of electrons       =        55.00
     number of Kohn-Sham states=           34
     kinetic-energy cutoff     =      30.0000  Ry
     charge density cutoff     =     120.0000  Ry
     convergence threshold     =      1.0E-08
     mixing beta               =       0.7000
     number of iterations used =            8  plain     mixing
     Exchange-correlation      = BLYP ( 1  3  1  3 0 0)
     nstep                     =           50

     celldm(1)=  20.000000  celldm(2)=   0.000000  celldm(3)=   0.000000
     celldm(4)=   0.000000  celldm(5)=   0.000000  celldm(6)=   0.000000

     crystal axes: (cart. coord. in units of alat)
               a(1) = (   1.000000   0.000000   0.000000 )
               a(2) = (   0.000000   1.000000   0.000000 )
               a(3) = (   0.000000   0.000000   1.000000 )

     reciprocal axes: (cart. coord. in units 2 pi/alat)
               b(1) = (  1.000000  0.000000  0.000000 )
               b(2) = (  0.000000  1.000000  0.000000 )
               b(3) = (  0.000000  0.000000  1.000000 )

     PseudoPot. # 1 for Au read from file:
     ./Au.blyp-d-hgh.UPF
     MD5 check sum: c10d8bae01f806c36a1643a1c69a8479
     Pseudo is Norm-conserving, Zval = 11.0
     Generated in analytical, separable form
     Using radial grid of 1279 points,  6 beta functions with:
                l(1) =   0
                l(2) =   0
                l(3) =   1
                l(4) =   1
                l(5) =   2
                l(6) =   2

     atomic species   valence    mass     pseudopotential
        Au            11.00    28.08600     Au( 1.00)

     No symmetry found

   Cartesian axes

     site n.     atom                  positions (alat units)
         1           Au  tau(   1) = (  -0.1642878   0.0805798   0.0196517  )
         2           Au  tau(   2) = (  -0.0320640   0.1799290   0.1975307  )
         3           Au  tau(   3) = (   0.3083975   0.1657950   0.0003232  )
         4           Au  tau(   4) = (   0.2319351   0.2316127   0.2497881  )
         5           Au  tau(   5) = (   0.2701361  -0.0033840   0.1797133  )

     number of k points=     1  Marzari-Vanderbilt smearing, width (Ry)=  0.0250
                       cart. coord. in units 2pi/alat
        k(    1) = (   0.0000000   0.0000000   0.0000000), wk =   2.0000000

     Initial potential from superposition of free atoms
     Check: negative starting charge=   -0.005808

     starting charge   54.99940, renormalised to   55.00000

     negative rho (up, down):  5.808E-03 0.000E+00
     Starting wfc are   45 randomized atomic wfcs

     Self-consistent Calculation

     iteration #  1     ecut=    30.00 Ry     beta=0.70
     Davidson diagonalization with overlap
     ethr =  1.00E-02,  avg # of iterations =  2.0

     Threshold (ethr) on eigenvalues was too large:
     Diagonalizing with lowered threshold

     Davidson diagonalization with overlap
     ethr =  5.61E-04,  avg # of iterations =  6.0

     negative rho (up, down):  7.193E-04 0.000E+00

     total energy              =    -329.23642544 Ry
     Harris-Foulkes estimate   =    -329.47134054 Ry
     estimated scf accuracy    <       0.36161921 Ry

[...]

     End of self-consistent calculation

          k = 0.0000 0.0000 0.0000 ( 22119 PWs)   bands (ev):

    -8.5088  -7.6106  -7.1558  -7.1203  -7.0913  -6.6145  -6.5330  -6.3283
    -6.1780  -5.8088  -5.7597  -5.6399  -5.5943  -5.5276  -5.4632  -5.4345
    -5.4061  -5.3024  -4.9667  -4.7167  -4.6838  -4.2672  -4.1057  -4.1016
    -4.0850  -4.0291  -3.9618  -3.6145  -3.3533  -2.0587  -0.3589  -0.0930
     0.2182   0.4723

     the Fermi energy is    -3.6989 ev

!    total energy              =    -329.38032181 Ry
     Harris-Foulkes estimate   =    -329.38032181 Ry
     estimated scf accuracy    <          5.8E-09 Ry

     The total energy is the sum of the following terms:

     one-electron contribution =    -565.81479119 Ry
     hartree contribution      =     304.90354526 Ry
     xc contribution           =     -51.43427568 Ry
     ewald contribution        =     -17.06216725 Ry
     smearing contrib. (-TS)   =       0.02736705 Ry

     convergence has been achieved in  79 iterations

     Forces acting on atoms (Ry/au):

     atom    1 type  1   force =    -0.00342021   -0.00031301   -0.00329027
     atom    2 type  1   force =     0.02284365    0.00396318    0.00922219
     atom    3 type  1   force =     0.00595387    0.00160573   -0.00456243
     atom    4 type  1   force =    -0.02660375    0.01781175    0.00135876
     atom    5 type  1   force =     0.00122644   -0.02306765   -0.00272824

     Total force =     0.047665     Total SCF correction =     0.000229

     BFGS Geometry Optimization

     number of scf cycles    =   1
     number of bfgs steps    =   0

     energy   new            =    -329.3803218075 Ry

     new trust radius        =       0.0320447226 bohr
     new conv_thr            =       0.0000000100 Ry

ATOMIC_POSITIONS (bohr)
Au      -3.289176208   1.611282987   0.389743732
Au      -0.618435352   3.602542185   3.959836185
Au       6.173902872   3.317506730   0.001901567
Au       4.612099250   4.650065752   4.997120757
Au       5.403948438  -0.090747653   3.591538759

     Writing output data file pwscf.save
     Check: negative starting charge=   -0.005808
     NEW-OLD atomic charge density approx. for the potential
     Check: negative starting charge=   -0.005790

[...]

     energy   old            =    -329.3803218075 Ry
     energy   new            =    -329.3823407137 Ry

     CASE: energy  _new < energy  _old

[...]

     WARNING: bfgs curvature condition failed, Theta= 0.870
     new trust radius        =       0.0103557464 bohr
     new conv_thr            =            1.0E-10 Ry

[...]

     WARNING: info= 15 for Hessian
     new trust radius        =       0.0349506441 bohr
     new conv_thr            =       0.0000000002 Ry

[...]

     WARNING: info= 15 for Hessian
     new trust radius        =       0.0344065252 bohr
     new conv_thr            =       0.0000000003 Ry

[...]

     WARNING: info= 15 for Hessian
     uphill step: resetting bfgs history

[...]

     WARNING: bfgs curvature condition failed, Theta= 0.971
     new trust radius        =       0.0848531891 bohr
     new conv_thr            =       0.0000000017 Ry

[...]

     CASE: energy  _new < energy  _old

[...]

     iteration #  1     ecut=    30.00 Ry     beta=0.70
     Davidson diagonalization with overlap
     c_bands:  1 eigenvalues not converged
     ethr =  1.00E-06,  avg # of iterations = 20.0

[...]

     CASE: energy  _new > energy  _old

[...]

     new trust radius        =       0.0000001523 bohr

     trust_radius < trust_radius_min

     resetting bfgs history

     new conv_thr            =       0.0000000030 Ry

[...]

     new trust radius        =       0.0010413745 bohr
     new conv_thr            =       0.0000000030 Ry

[...]

     Self-consistent Calculation

[...]

     Threshold (ethr) on eigenvalues was too large:
     Diagonalizing with lowered threshold

     Davidson diagonalization with overlap
     ethr =  6.21E-08,  avg # of iterations =  1.0

[...]

     total energy              =    -329.41506419 Ry
     Harris-Foulkes estimate   =    -329.41506429 Ry
     estimated scf accuracy    <          7.4E-09 Ry

     iteration #  8     ecut=    30.00 Ry     beta=0.70
     Davidson diagonalization with overlap
     ethr =  1.35E-11,  avg # of iterations =  3.0

     End of self-consistent calculation

          k = 0.0000 0.0000 0.0000 ( 22119 PWs)   bands (ev):

    -8.2720  -7.4636  -7.4073  -7.0475  -6.8084  -6.6209  -6.5560  -6.2949
    -6.2521  -6.0141  -5.9014  -5.6377  -5.5511  -5.3649  -5.2768  -5.2563
    -5.2105  -5.1947  -5.1232  -5.0937  -4.9388  -4.8649  -4.8412  -4.7302
    -4.7203  -4.5732  -4.5392  -3.3403  -3.0757  -2.2283  -0.4007   0.0365
     0.1996   0.5877

     the Fermi energy is    -3.3261 ev

!    total energy              =    -329.41506421 Ry
     Harris-Foulkes estimate   =    -329.41506419 Ry
     estimated scf accuracy    <          2.7E-09 Ry

     The total energy is the sum of the following terms:

     one-electron contribution =    -561.07750460 Ry
     hartree contribution      =     302.25660713 Ry
     xc contribution           =     -51.37503392 Ry
     ewald contribution        =     -19.20704980 Ry
     smearing contrib. (-TS)   =      -0.01208302 Ry

     convergence has been achieved in   8 iterations

     Forces acting on atoms (Ry/au):

     atom    1 type  1   force =    -0.01378493   -0.01145370   -0.02685231
     atom    2 type  1   force =     0.02972708    0.01566825    0.02009155
     atom    3 type  1   force =     0.00332400    0.02745825   -0.01642129
     atom    4 type  1   force =    -0.01579062   -0.00888438   -0.00170310
     atom    5 type  1   force =    -0.00347553   -0.02278842    0.02488515

     Total force =     0.071356     Total SCF correction =     0.000180

     number of scf cycles    =  50
     number of bfgs steps    =  34

     energy   old            =    -329.4223019770 Ry
     energy   new            =    -329.4150642122 Ry

     CASE: energy  _new > energy  _old

     new trust radius        =       0.0000099344 bohr

     trust_radius < trust_radius_min

     resetting bfgs history

     new conv_thr            =       0.0000000030 Ry

ATOMIC_POSITIONS (bohr)
Au      -3.001391309   1.859775123   0.918321379
Au      -1.631689797   3.935596947   5.085402127
Au       7.340779093   3.288909109  -0.032407564
Au       3.312546836   4.115007424   3.649618528
Au       6.262094178  -0.108638603   3.319206530

     Writing output data file pwscf.save
     Check: negative starting charge=   -0.005881
     NEW-OLD atomic charge density approx. for the potential
     Check: negative starting charge=   -0.005819

     negative rho (up, down):  3.517E-04 0.000E+00

     Writing output data file pwscf.save

     General routines

     Parallel routines

   This run was terminated on:   6: 6:48   4Aug2017

   JOB DONE.