     Program PWSCF v.6.0 (svn rev. 13079) starts on  3Aug2017 at 21: 3: 5

     Current dimensions of program PWSCF are:
     Max number of different atomic species (ntypx) = 10
     Max number of k-points (npk) =  40000
     Max angular momentum in pseudopotentials (lmaxx) =  3
     Message from routine iosys:
     pot_extrapolation='second-order' not available, using 'atomic'
     Message from routine iosys:
     wfc_extrapolation='second-order' not available, using 'atomic'

     Subspace diagonalization in iterative solution of the eigenvalue problem:
     a serial algorithm will be used

     bravais-lattice index     =            1
     lattice parameter (alat)  =      20.0000  a.u.
     unit-cell volume          =    8000.0000 (a.u.)^3
     number of atoms/cell      =            5
     number of atomic types    =            1
     number of electrons       =        55.00
     number of Kohn-Sham states=           34
     kinetic-energy cutoff     =      30.0000  Ry
     charge density cutoff     =     120.0000  Ry
     convergence threshold     =      1.0E-08
     mixing beta               =       0.7000
     number of iterations used =            8  plain     mixing
     Exchange-correlation      = BLYP ( 1  3  1  3 0 0)
     nstep                     =           50

     celldm(1)=  20.000000  celldm(2)=   0.000000  celldm(3)=   0.000000
     celldm(4)=   0.000000  celldm(5)=   0.000000  celldm(6)=   0.000000

     crystal axes: (cart. coord. in units of alat)
               a(1) = (   1.000000   0.000000   0.000000 )
               a(2) = (   0.000000   1.000000   0.000000 )
               a(3) = (   0.000000   0.000000   1.000000 )

     reciprocal axes: (cart. coord. in units 2 pi/alat)
               b(1) = (  1.000000  0.000000  0.000000 )
               b(2) = (  0.000000  1.000000  0.000000 )
               b(3) = (  0.000000  0.000000  1.000000 )

     PseudoPot. # 1 for Au read from file:
     ./Au.blyp-d-hgh.UPF
     MD5 check sum: c10d8bae01f806c36a1643a1c69a8479
     Pseudo is Norm-conserving, Zval = 11.0
     Generated in analytical, separable form
     Using radial grid of 1279 points,  6 beta functions with:
                l(1) =   0
                l(2) =   0
                l(3) =   1
                l(4) =   1
                l(5) =   2
                l(6) =   2

     atomic species   valence    mass     pseudopotential
        Au            11.00    28.08600     Au( 1.00)

     No symmetry found

   Cartesian axes

     site n.     atom                  positions (alat units)
         1           Au  tau(   1) = (  -0.0783618   0.0975808  -0.0536854  )
         2           Au  tau(   2) = (  -0.0347843   0.1382951   0.2207042  )
         3           Au  tau(   3) = (   0.1527611   0.0822124   0.0339728  )
         4           Au  tau(   4) = (   0.2006680   0.1879137   0.2836883  )
         5           Au  tau(   5) = (   0.3852594   0.0973245   0.1311850  )

     number of k points=     1  Marzari-Vanderbilt smearing, width (Ry)=  0.0250
                       cart. coord. in units 2pi/alat
        k(    1) = (   0.0000000   0.0000000   0.0000000), wk =   2.0000000

     Initial potential from superposition of free atoms
     Check: negative starting charge=   -0.006374

     starting charge   54.99940, renormalised to   55.00000

     negative rho (up, down):  6.374E-03 0.000E+00
     Starting wfc are   45 randomized atomic wfcs

     Self-consistent Calculation

     iteration #  1     ecut=    30.00 Ry     beta=0.70
     Davidson diagonalization with overlap
     ethr =  1.00E-02,  avg # of iterations =  3.0

     Threshold (ethr) on eigenvalues was too large:
     Diagonalizing with lowered threshold

     Davidson diagonalization with overlap
     ethr =  4.19E-04,  avg # of iterations =  3.0

     negative rho (up, down):  8.848E-04 0.000E+00

     total energy              =    -329.36945561 Ry
     Harris-Foulkes estimate   =    -329.54091801 Ry
     estimated scf accuracy    <       0.28592321 Ry

[...]

     End of self-consistent calculation

          k = 0.0000 0.0000 0.0000 ( 22119 PWs)   bands (ev):

    -8.5035  -7.8012  -7.6746  -7.2425  -6.9806  -6.8144  -6.5338  -6.4259
    -6.1992  -6.0485  -5.8437  -5.7821  -5.7499  -5.6684  -5.4119  -5.3594
    -5.3367  -5.2342  -5.2235  -5.1886  -5.1220  -5.0840  -4.9223  -4.9083
    -4.7853  -4.6984  -4.4345  -3.8654  -2.3870  -2.2642  -0.5303  -0.2319
     0.4314   0.9224

     the Fermi energy is    -3.8597 ev

!    total energy              =    -329.48154670 Ry
     Harris-Foulkes estimate   =    -329.48154677 Ry
     estimated scf accuracy    <          8.1E-09 Ry

     The total energy is the sum of the following terms:

     one-electron contribution =    -608.35723136 Ry
     hartree contribution      =     325.65194176 Ry
     xc contribution           =     -51.41444795 Ry
     ewald contribution        =       4.63665739 Ry
     smearing contrib. (-TS)   =       0.00153346 Ry

     convergence has been achieved in  12 iterations

     Forces acting on atoms (Ry/au):

     atom    1 type  1   force =    -0.00877749   -0.00008781    0.01301432
     atom    2 type  1   force =    -0.02231969   -0.00489181   -0.02613850
     atom    3 type  1   force =     0.00469127    0.00369004    0.00559378
     atom    4 type  1   force =     0.02223600    0.00132920    0.00548215
     atom    5 type  1   force =     0.00416991   -0.00003962    0.00204825

     Total force =     0.045459     Total SCF correction =     0.000332

     BFGS Geometry Optimization

     number of scf cycles    =   1
     number of bfgs steps    =   0

     energy   new            =    -329.4815466974 Ry

     new trust radius        =       0.0347177143 bohr
     new conv_thr            =       0.0000000100 Ry

ATOMIC_POSITIONS (bohr)
Au      -1.576013488   1.951528194  -1.060693680
Au      -0.718005694   2.761009186   4.387946502
Au       3.059912269   1.647938039   0.685049777
Au       4.035596999   3.759604199   5.679248155
Au       7.709356915   1.946450382   2.625749247

     Writing output data file pwscf.save
     Check: negative starting charge=   -0.006374
     NEW-OLD atomic charge density approx. for the potential
     Check: negative starting charge=   -0.006373

[...]

     energy   old            =    -329.4815466974 Ry
     energy   new            =    -329.4833783006 Ry

     CASE: energy  _new < energy  _old

[...]

     WARNING: bfgs curvature condition failed, Theta= 0.930
     new trust radius        =       0.0094073001 bohr
     new conv_thr            =       0.0000000002 Ry

[...]

     number of scf cycles    =  24
     number of bfgs steps    =  23

     energy   old            =    -329.4910168810 Ry
     energy   new            =    -329.4910356322 Ry

     CASE: energy  _new < energy  _old

     new trust radius        =       0.0131647074 bohr
     new conv_thr            =            1.0E-10 Ry

ATOMIC_POSITIONS (bohr)
Au      -1.701796733   1.766262966  -0.837493483
Au      -0.773448235   3.123846653   4.078142963
Au       3.117078451   1.754997935   0.662143509
Au       4.092612849   3.466742383   5.831694848
Au       7.776400668   1.954680062   2.582812163

     Writing output data file pwscf.save
     Check: negative starting charge=   -0.006499
     NEW-OLD atomic charge density approx. for the potential
     Check: negative starting charge=   -0.006486

[...]

     Self-consistent Calculation

[...]

     Threshold (ethr) on eigenvalues was too large:
     Diagonalizing with lowered threshold

     Davidson diagonalization with overlap
     ethr =  8.08E-08,  avg # of iterations =  1.0

     negative rho (up, down):  4.124E-08 0.000E+00

[...]

     total energy              =    -329.49104716 Ry
     Harris-Foulkes estimate   =    -329.49104716 Ry
     estimated scf accuracy    <          1.4E-09 Ry

     iteration #  9     ecut=    30.00 Ry     beta=0.70
     Davidson diagonalization with overlap
     ethr =  2.58E-12,  avg # of iterations =  2.0

     End of self-consistent calculation

          k = 0.0000 0.0000 0.0000 ( 22119 PWs)   bands (ev):

    -8.5142  -7.7837  -7.6499  -7.2311  -6.8780  -6.8224  -6.6138  -6.4828
    -6.3035  -6.0786  -5.9665  -5.7713  -5.7359  -5.6880  -5.4524  -5.3712
    -5.3191  -5.2432  -5.2020  -5.1958  -5.1708  -5.1284  -4.9960  -4.9259
    -4.8652  -4.7142  -4.4831  -3.7797  -2.4903  -2.2159  -0.5724  -0.2027
     0.4708   0.9138

     the Fermi energy is    -3.7470 ev

!    total energy              =    -329.49104715 Ry
     Harris-Foulkes estimate   =    -329.49104716 Ry
     estimated scf accuracy    <          7.3E-11 Ry

     The total energy is the sum of the following terms:

     one-electron contribution =    -609.47597723 Ry
     hartree contribution      =     326.16411889 Ry
     xc contribution           =     -51.40159219 Ry
     ewald contribution        =       5.22676703 Ry
     smearing contrib. (-TS)   =      -0.00436364 Ry

     convergence has been achieved in   9 iterations

     Forces acting on atoms (Ry/au):

     atom    1 type  1   force =    -0.00004114   -0.00037354    0.00018733
     atom    2 type  1   force =    -0.00035639    0.00016317    0.00025453
     atom    3 type  1   force =    -0.00009781   -0.00020352    0.00004902
     atom    4 type  1   force =     0.00005175    0.00011971   -0.00050146
     atom    5 type  1   force =     0.00044359    0.00029418    0.00001057

     Total force =     0.001000     Total SCF correction =     0.000041

     bfgs converged in  25 scf cycles and  24 bfgs steps
     (criteria: energy <  1.0E-04, force <  1.0E-03)

     End of BFGS Geometry Optimization

     Final energy   =    -329.4910471489 Ry
Begin final coordinates

ATOMIC_POSITIONS (bohr)
Au      -1.701796733   1.766262966  -0.837493483
Au      -0.773448235   3.123846653   4.078142963
Au       3.117078451   1.754997935   0.662143509
Au       4.092612849   3.466742383   5.831694848
Au       7.776400668   1.954680062   2.582812163
End final coordinates

     Writing output data file pwscf.save

     General routines

     Parallel routines

   This run was terminated on:  21: 4: 8   3Aug2017

   JOB DONE.