     Program PWSCF v.6.0 (svn rev. 13079) starts on  3Aug2017 at 13:19: 1

     Current dimensions of program PWSCF are:
     Max number of different atomic species (ntypx) = 10
     Max number of k-points (npk) =  40000
     Max angular momentum in pseudopotentials (lmaxx) =  3
     Message from routine iosys:
     pot_extrapolation='second-order' not available, using 'atomic'
     Message from routine iosys:
     wfc_extrapolation='second-order' not available, using 'atomic'

     Subspace diagonalization in iterative solution of the eigenvalue problem:
     a serial algorithm will be used

     bravais-lattice index     =            1
     lattice parameter (alat)  =      20.0000  a.u.
     unit-cell volume          =    8000.0000 (a.u.)^3
     number of atoms/cell      =            5
     number of atomic types    =            1
     number of electrons       =        55.00
     number of Kohn-Sham states=           34
     kinetic-energy cutoff     =      30.0000  Ry
     charge density cutoff     =     120.0000  Ry
     convergence threshold     =      1.0E-08
     mixing beta               =       0.7000
     number of iterations used =            8  plain     mixing
     Exchange-correlation      = BLYP ( 1  3  1  3 0 0)
     nstep                     =           50

     celldm(1)=  20.000000  celldm(2)=   0.000000  celldm(3)=   0.000000
     celldm(4)=   0.000000  celldm(5)=   0.000000  celldm(6)=   0.000000

     crystal axes: (cart. coord. in units of alat)
               a(1) = (   1.000000   0.000000   0.000000 )
               a(2) = (   0.000000   1.000000   0.000000 )
               a(3) = (   0.000000   0.000000   1.000000 )

     reciprocal axes: (cart. coord. in units 2 pi/alat)
               b(1) = (  1.000000  0.000000  0.000000 )
               b(2) = (  0.000000  1.000000  0.000000 )
               b(3) = (  0.000000  0.000000  1.000000 )

     PseudoPot. # 1 for Au read from file:
     ./Au.blyp-d-hgh.UPF
     MD5 check sum: c10d8bae01f806c36a1643a1c69a8479
     Pseudo is Norm-conserving, Zval = 11.0
     Generated in analytical, separable form
     Using radial grid of 1279 points,  6 beta functions with:
                l(1) =   0
                l(2) =   0
                l(3) =   1
                l(4) =   1
                l(5) =   2
                l(6) =   2

     atomic species   valence    mass     pseudopotential
        Au            11.00    28.08600     Au( 1.00)

     No symmetry found

   Cartesian axes

     site n.     atom                  positions (alat units)
         1           Au  tau(   1) = (  -0.0974194   0.1210215  -0.0179786  )
         2           Au  tau(   2) = (  -0.0399711   0.1831989   0.2142758  )
         3           Au  tau(   3) = (   0.1454356   0.0828593   0.0299010  )
         4           Au  tau(   4) = (   0.2196443   0.1821119   0.2794062  )
         5           Au  tau(   5) = (   0.3812359   0.0903898   0.1170820  )

     number of k points=     1  Marzari-Vanderbilt smearing, width (Ry)=  0.0250
                       cart. coord. in units 2pi/alat
        k(    1) = (   0.0000000   0.0000000   0.0000000), wk =   2.0000000

     Initial potential from superposition of free atoms
     Check: negative starting charge=   -0.006447

     starting charge   54.99940, renormalised to   55.00000

     negative rho (up, down):  6.447E-03 0.000E+00
     Starting wfc are   45 randomized atomic wfcs

     Self-consistent Calculation

     iteration #  1     ecut=    30.00 Ry     beta=0.70
     Davidson diagonalization with overlap
     ethr =  1.00E-02,  avg # of iterations =  3.0

     Threshold (ethr) on eigenvalues was too large:
     Diagonalizing with lowered threshold

     Davidson diagonalization with overlap
     ethr =  4.21E-04,  avg # of iterations =  6.0

     negative rho (up, down):  8.784E-04 0.000E+00

     total energy              =    -329.36604289 Ry
     Harris-Foulkes estimate   =    -329.54367982 Ry
     estimated scf accuracy    <       0.29209833 Ry

[...]

     End of self-consistent calculation

          k = 0.0000 0.0000 0.0000 ( 22119 PWs)   bands (ev):

    -8.5098  -7.9018  -7.6591  -7.1532  -6.9528  -6.9107  -6.8417  -6.5580
    -6.2137  -6.1948  -6.0459  -5.7802  -5.7426  -5.6637  -5.4210  -5.3543
    -5.2925  -5.2743  -5.2140  -5.1590  -5.1558  -5.1356  -4.9947  -4.9088
    -4.8993  -4.6616  -4.4464  -3.7079  -2.5435  -2.1642  -0.5603  -0.2004
     0.5532   0.8611

     the Fermi energy is    -3.6712 ev

!    total energy              =    -329.48329616 Ry
     Harris-Foulkes estimate   =    -329.48329624 Ry
     estimated scf accuracy    <          7.1E-09 Ry

     The total energy is the sum of the following terms:

     one-electron contribution =    -612.21691673 Ry
     hartree contribution      =     327.51887001 Ry
     xc contribution           =     -51.42271557 Ry
     ewald contribution        =       6.64279546 Ry
     smearing contrib. (-TS)   =      -0.00532933 Ry

     convergence has been achieved in  11 iterations

     Forces acting on atoms (Ry/au):

     atom    1 type  1   force =    -0.01132651   -0.00618062   -0.02411381
     atom    2 type  1   force =     0.01833937    0.00455842    0.02233238
     atom    3 type  1   force =     0.00132115    0.00519508    0.00570559
     atom    4 type  1   force =    -0.02760293    0.00806163    0.01174718
     atom    5 type  1   force =     0.01926892   -0.01163451   -0.01567133

     Total force =     0.058157     Total SCF correction =     0.000379

     BFGS Geometry Optimization

     number of scf cycles    =   1
     number of bfgs steps    =   0

     energy   new            =    -329.4832961633 Ry

     new trust radius        =       0.0310629607 bohr
     new conv_thr            =       0.0000000100 Ry

ATOMIC_POSITIONS (bohr)
Au      -1.959714511   2.414249384  -0.383685814
Au      -0.781081630   3.668536415   4.307847378
Au       2.910034147   1.662382084   0.603725586
Au       4.365284074   3.650299626   5.599872177
Au       7.643986921   1.796160491   2.325968673

     Writing output data file pwscf.save
     Check: negative starting charge=   -0.006447
     NEW-OLD atomic charge density approx. for the potential
     Check: negative starting charge=   -0.006426

[...]

     energy   old            =    -329.4832961633 Ry
     energy   new            =    -329.4861138986 Ry

     CASE: energy  _new < energy  _old

[...]

     CASE: energy  _new > energy  _old

[...]

     Threshold (ethr) on eigenvalues was too large:
     Diagonalizing with lowered threshold

     Davidson diagonalization with overlap
     ethr =  7.26E-08,  avg # of iterations =  1.0

[...]

     Self-consistent Calculation

[...]

     total energy              =    -329.49178980 Ry
     Harris-Foulkes estimate   =    -329.49178981 Ry
     estimated scf accuracy    <          3.1E-10 Ry

     iteration # 11     ecut=    30.00 Ry     beta=0.70
     Davidson diagonalization with overlap
     ethr =  5.67E-13,  avg # of iterations =  2.0

     End of self-consistent calculation

          k = 0.0000 0.0000 0.0000 ( 22119 PWs)   bands (ev):

    -8.5085  -7.7853  -7.6607  -7.2466  -6.8716  -6.8130  -6.6269  -6.4849
    -6.3168  -6.0714  -5.9659  -5.7742  -5.7316  -5.6904  -5.4570  -5.3676
    -5.3152  -5.2438  -5.1999  -5.1857  -5.1732  -5.1270  -5.0064  -4.9185
    -4.8412  -4.7310  -4.4750  -3.7742  -2.4779  -2.2022  -0.5618  -0.1974
     0.4706   0.8608

     the Fermi energy is    -3.7415 ev

!    total energy              =    -329.49178982 Ry
     Harris-Foulkes estimate   =    -329.49178980 Ry
     estimated scf accuracy    <          4.2E-11 Ry

     The total energy is the sum of the following terms:

     one-electron contribution =    -609.19193872 Ry
     hartree contribution      =     326.02273967 Ry
     xc contribution           =     -51.40236670 Ry
     ewald contribution        =       5.08416207 Ry
     smearing contrib. (-TS)   =      -0.00438614 Ry

     convergence has been achieved in  11 iterations

     Forces acting on atoms (Ry/au):

     atom    1 type  1   force =    -0.00029809    0.00102586    0.00031957
     atom    2 type  1   force =     0.00023000    0.00004181   -0.00119930
     atom    3 type  1   force =     0.00177777   -0.00017167    0.00165250
     atom    4 type  1   force =    -0.00196825    0.00058590    0.00066818
     atom    5 type  1   force =     0.00025857   -0.00148191   -0.00144094

     Total force =     0.004202     Total SCF correction =     0.000031

     number of scf cycles    =  50
     number of bfgs steps    =  48

     energy   old            =    -329.4917329500 Ry
     energy   new            =    -329.4917898162 Ry

     CASE: energy  _new < energy  _old

     new trust radius        =       0.0388817443 bohr
     new conv_thr            =            1.0E-10 Ry

ATOMIC_POSITIONS (bohr)
Au      -1.672180238   2.447744074  -0.978987335
Au      -0.836407231   3.647312447   3.982965005
Au       3.066725002   1.936470864   0.722872497
Au       3.964046320   3.494084279   5.892185613
Au       7.656325147   1.666016336   2.834692221

     Writing output data file pwscf.save
     Check: negative starting charge=   -0.006430
     NEW-OLD atomic charge density approx. for the potential
     Check: negative starting charge=   -0.006434

     negative rho (up, down):  4.931E-04 0.000E+00

     Writing output data file pwscf.save

     General routines

     Parallel routines

   This run was terminated on:  13:21:34   3Aug2017

   JOB DONE.