     Program PWSCF v.6.0 (svn rev. 13079) starts on  4Aug2017 at  6: 1:26

     Current dimensions of program PWSCF are:
     Max number of different atomic species (ntypx) = 10
     Max number of k-points (npk) =  40000
     Max angular momentum in pseudopotentials (lmaxx) =  3
     Message from routine iosys:
     pot_extrapolation='second-order' not available, using 'atomic'
     Message from routine iosys:
     wfc_extrapolation='second-order' not available, using 'atomic'

     Subspace diagonalization in iterative solution of the eigenvalue problem:
     a serial algorithm will be used

     bravais-lattice index     =            1
     lattice parameter (alat)  =      20.0000  a.u.
     unit-cell volume          =    8000.0000 (a.u.)^3
     number of atoms/cell      =            5
     number of atomic types    =            1
     number of electrons       =        55.00
     number of Kohn-Sham states=           34
     kinetic-energy cutoff     =      30.0000  Ry
     charge density cutoff     =     120.0000  Ry
     convergence threshold     =      1.0E-08
     mixing beta               =       0.7000
     number of iterations used =            8  plain     mixing
     Exchange-correlation      = BLYP ( 1  3  1  3 0 0)
     nstep                     =           50

     celldm(1)=  20.000000  celldm(2)=   0.000000  celldm(3)=   0.000000
     celldm(4)=   0.000000  celldm(5)=   0.000000  celldm(6)=   0.000000

     crystal axes: (cart. coord. in units of alat)
               a(1) = (   1.000000   0.000000   0.000000 )
               a(2) = (   0.000000   1.000000   0.000000 )
               a(3) = (   0.000000   0.000000   1.000000 )

     reciprocal axes: (cart. coord. in units 2 pi/alat)
               b(1) = (  1.000000  0.000000  0.000000 )
               b(2) = (  0.000000  1.000000  0.000000 )
               b(3) = (  0.000000  0.000000  1.000000 )

     PseudoPot. # 1 for Au read from file:
     ./Au.blyp-d-hgh.UPF
     MD5 check sum: c10d8bae01f806c36a1643a1c69a8479
     Pseudo is Norm-conserving, Zval = 11.0
     Generated in analytical, separable form
     Using radial grid of 1279 points,  6 beta functions with:
                l(1) =   0
                l(2) =   0
                l(3) =   1
                l(4) =   1
                l(5) =   2
                l(6) =   2

     atomic species   valence    mass     pseudopotential
        Au            11.00    28.08600     Au( 1.00)

     No symmetry found

   Cartesian axes

     site n.     atom                  positions (alat units)
         1           Au  tau(   1) = (  -0.0272807   0.0102522   0.0208112  )
         2           Au  tau(   2) = (   0.0299781   0.1125214   0.1994677  )
         3           Au  tau(   3) = (   0.1565855   0.1751304  -0.0069754  )
         4           Au  tau(   4) = (   0.2458178   0.2111309   0.2494027  )
         5           Au  tau(   5) = (   0.2435192  -0.0087922   0.1733567  )

     number of k points=     1  Marzari-Vanderbilt smearing, width (Ry)=  0.0250
                       cart. coord. in units 2pi/alat
        k(    1) = (   0.0000000   0.0000000   0.0000000), wk =   2.0000000

     Initial potential from superposition of free atoms
     Check: negative starting charge=   -0.006580

     starting charge   54.99940, renormalised to   55.00000

     negative rho (up, down):  6.580E-03 0.000E+00
     Starting wfc are   45 randomized atomic wfcs

     Self-consistent Calculation

     iteration #  1     ecut=    30.00 Ry     beta=0.70
     Davidson diagonalization with overlap
     ethr =  1.00E-02,  avg # of iterations =  5.0

     Threshold (ethr) on eigenvalues was too large:
     Diagonalizing with lowered threshold

     Davidson diagonalization with overlap
     ethr =  4.07E-04,  avg # of iterations =  4.0

     negative rho (up, down):  7.467E-04 0.000E+00

     total energy              =    -329.15408390 Ry
     Harris-Foulkes estimate   =    -329.32405814 Ry
     estimated scf accuracy    <       0.28206620 Ry

[...]

     End of self-consistent calculation

          k = 0.0000 0.0000 0.0000 ( 22119 PWs)   bands (ev):

    -9.7382  -9.2147  -8.7929  -8.1370  -7.9277  -7.7432  -7.2092  -7.0435
    -6.9102  -6.5853  -6.4363  -6.2153  -5.9286  -5.8761  -5.7376  -5.5691
    -5.4555  -5.3887  -5.1957  -5.1253  -5.0282  -4.8894  -4.7696  -4.7429
    -4.5255  -4.2250  -3.9642  -3.1583  -3.0320  -1.8002  -0.1518   0.0738
     0.3571   0.5371

     the Fermi energy is    -3.1939 ev

!    total energy              =    -329.26326239 Ry
     Harris-Foulkes estimate   =    -329.26326239 Ry
     estimated scf accuracy    <          3.1E-09 Ry

     The total energy is the sum of the following terms:

     one-electron contribution =    -699.53691363 Ry
     hartree contribution      =     370.78664716 Ry
     xc contribution           =     -51.70044478 Ry
     ewald contribution        =      51.19868816 Ry
     smearing contrib. (-TS)   =      -0.01123930 Ry

     convergence has been achieved in  13 iterations

     Forces acting on atoms (Ry/au):

     atom    1 type  1   force =    -0.12739086   -0.17708275   -0.27069727
     atom    2 type  1   force =    -0.03951659    0.13727108    0.29485914
     atom    3 type  1   force =     0.04294427    0.04315674   -0.06016677
     atom    4 type  1   force =     0.06746394    0.13250020    0.06272879
     atom    5 type  1   force =     0.05649924   -0.13584527   -0.02672389

     Total force =     0.532860     Total SCF correction =     0.000216

     BFGS Geometry Optimization

     number of scf cycles    =   1
     number of bfgs steps    =   0

     energy   new            =    -329.2632623891 Ry

     new trust radius        =       0.3476546396 bohr
     new conv_thr            =       0.0000000100 Ry

ATOMIC_POSITIONS (bohr)
Au      -0.673003865   0.027961246   0.145527725
Au       0.560046412   2.387699084   4.284213145
Au       3.174654272   3.545765745  -0.199674766
Au       4.983820940   4.355119199   5.050782788
Au       4.926884241  -0.311689274   3.440409107

     Writing output data file pwscf.save
     Check: negative starting charge=   -0.006580
     NEW-OLD atomic charge density approx. for the potential
     Check: negative starting charge=   -0.006323

[...]

     energy   old            =    -329.2632623891 Ry
     energy   new            =    -329.4015335747 Ry

     CASE: energy  _new < energy  _old

[...]

     WARNING: bfgs curvature condition failed, Theta= 0.938
     new trust radius        =       0.1666224209 bohr
     new conv_thr            =       0.0000000011 Ry

[...]

     iteration # 28     ecut=    30.00 Ry     beta=0.70
     Davidson diagonalization with overlap
     c_bands:  1 eigenvalues not converged
     ethr =  8.14E-06,  avg # of iterations = 20.0

[...]

     WARNING: bfgs curvature condition failed, Theta= 0.908
     new trust radius        =       0.0446858459 bohr
     new conv_thr            =       0.0000000006 Ry

[...]

     iteration #  1     ecut=    30.00 Ry     beta=0.70
     Davidson diagonalization with overlap
     c_bands:  1 eigenvalues not converged
     ethr =  1.00E-06,  avg # of iterations = 20.0

[...]

     Self-consistent Calculation

[...]

     Threshold (ethr) on eigenvalues was too large:
     Diagonalizing with lowered threshold

     Davidson diagonalization with overlap
     ethr =  1.71E-08,  avg # of iterations =  2.0

[...]

     total energy              =    -329.49278043 Ry
     Harris-Foulkes estimate   =    -329.49278041 Ry
     estimated scf accuracy    <          2.0E-10 Ry

     iteration #  9     ecut=    30.00 Ry     beta=0.70
     Davidson diagonalization with overlap
     ethr =  3.59E-13,  avg # of iterations =  3.0

     End of self-consistent calculation

          k = 0.0000 0.0000 0.0000 ( 22119 PWs)   bands (ev):

    -8.5097  -7.7814  -7.6487  -7.2282  -6.8399  -6.8147  -6.6131  -6.4822
    -6.3017  -6.0771  -5.9524  -5.7707  -5.7282  -5.6832  -5.4622  -5.3556
    -5.3107  -5.2476  -5.2005  -5.1771  -5.1722  -5.1206  -5.0036  -4.9215
    -4.8320  -4.7355  -4.4825  -3.7777  -2.4706  -2.1888  -0.5360  -0.1698
     0.5259   0.7961

     the Fermi energy is    -3.7445 ev

!    total energy              =    -329.49278045 Ry
     Harris-Foulkes estimate   =    -329.49278043 Ry
     estimated scf accuracy    <          7.8E-11 Ry

     The total energy is the sum of the following terms:

     one-electron contribution =    -607.19416682 Ry
     hartree contribution      =     325.03129841 Ry
     xc contribution           =     -51.39876534 Ry
     ewald contribution        =       4.07332712 Ry
     smearing contrib. (-TS)   =      -0.00447382 Ry

     convergence has been achieved in   9 iterations

     Forces acting on atoms (Ry/au):

     atom    1 type  1   force =    -0.00014418    0.00012690   -0.00003436
     atom    2 type  1   force =     0.00003912    0.00105236    0.00005380
     atom    3 type  1   force =     0.00049671   -0.00024873    0.00056382
     atom    4 type  1   force =    -0.00008830    0.00027121   -0.00063586
     atom    5 type  1   force =    -0.00030336   -0.00120174    0.00005259

     Total force =     0.001950     Total SCF correction =     0.000033

     number of scf cycles    =  50
     number of bfgs steps    =  49

     energy   old            =    -329.4927708741 Ry
     energy   new            =    -329.4927804465 Ry

     CASE: energy  _new < energy  _old

     new trust radius        =       0.0043259494 bohr
     new conv_thr            =            1.0E-10 Ry

ATOMIC_POSITIONS (bohr)
Au      -1.679235411   1.449283466  -0.615283657
Au      -0.504039682   3.823698155   3.820314781
Au       3.069437710   0.844307928   0.990862957
Au       4.345071494   3.334050608   5.616275542
Au       7.741167890   0.553515843   2.909088377

     Writing output data file pwscf.save
     Check: negative starting charge=   -0.006325
     NEW-OLD atomic charge density approx. for the potential
     Check: negative starting charge=   -0.006325

     negative rho (up, down):  1.420E-08 0.000E+00

     Writing output data file pwscf.save

     General routines

     Parallel routines

   This run was terminated on:   6: 4: 2   4Aug2017

   JOB DONE.