     Program PWSCF v.6.0 (svn rev. 13079) starts on  4Aug2017 at  1:20:32

     Current dimensions of program PWSCF are:
     Max number of different atomic species (ntypx) = 10
     Max number of k-points (npk) =  40000
     Max angular momentum in pseudopotentials (lmaxx) =  3
     Message from routine iosys:
     pot_extrapolation='second-order' not available, using 'atomic'
     Message from routine iosys:
     wfc_extrapolation='second-order' not available, using 'atomic'

     Subspace diagonalization in iterative solution of the eigenvalue problem:
     a serial algorithm will be used

     bravais-lattice index     =            1
     lattice parameter (alat)  =      20.0000  a.u.
     unit-cell volume          =    8000.0000 (a.u.)^3
     number of atoms/cell      =            5
     number of atomic types    =            1
     number of electrons       =        55.00
     number of Kohn-Sham states=           34
     kinetic-energy cutoff     =      30.0000  Ry
     charge density cutoff     =     120.0000  Ry
     convergence threshold     =      1.0E-08
     mixing beta               =       0.7000
     number of iterations used =            8  plain     mixing
     Exchange-correlation      = BLYP ( 1  3  1  3 0 0)
     nstep                     =           50

     celldm(1)=  20.000000  celldm(2)=   0.000000  celldm(3)=   0.000000
     celldm(4)=   0.000000  celldm(5)=   0.000000  celldm(6)=   0.000000

     crystal axes: (cart. coord. in units of alat)
               a(1) = (   1.000000   0.000000   0.000000 )
               a(2) = (   0.000000   1.000000   0.000000 )
               a(3) = (   0.000000   0.000000   1.000000 )

     reciprocal axes: (cart. coord. in units 2 pi/alat)
               b(1) = (  1.000000  0.000000  0.000000 )
               b(2) = (  0.000000  1.000000  0.000000 )
               b(3) = (  0.000000  0.000000  1.000000 )

     PseudoPot. # 1 for Au read from file:
     ./Au.blyp-d-hgh.UPF
     MD5 check sum: c10d8bae01f806c36a1643a1c69a8479
     Pseudo is Norm-conserving, Zval = 11.0
     Generated in analytical, separable form
     Using radial grid of 1279 points,  6 beta functions with:
                l(1) =   0
                l(2) =   0
                l(3) =   1
                l(4) =   1
                l(5) =   2
                l(6) =   2

     atomic species   valence    mass     pseudopotential
        Au            11.00    28.08600     Au( 1.00)

     No symmetry found

   Cartesian axes

     site n.     atom                  positions (alat units)
         1           Au  tau(   1) = (  -0.0869061   0.0516173  -0.0325867  )
         2           Au  tau(   2) = (  -0.0038187   0.1405910   0.1993160  )
         3           Au  tau(   3) = (   0.1479932   0.1257040  -0.0048278  )
         4           Au  tau(   4) = (   0.2212228   0.2363419   0.2894079  )
         5           Au  tau(   5) = (   0.3150824   0.0392448   0.1516735  )

     number of k points=     1  Marzari-Vanderbilt smearing, width (Ry)=  0.0250
                       cart. coord. in units 2pi/alat
        k(    1) = (   0.0000000   0.0000000   0.0000000), wk =   2.0000000

     Initial potential from superposition of free atoms
     Check: negative starting charge=   -0.006162

     starting charge   54.99940, renormalised to   55.00000

     negative rho (up, down):  6.162E-03 0.000E+00
     Starting wfc are   45 randomized atomic wfcs

     Self-consistent Calculation

     iteration #  1     ecut=    30.00 Ry     beta=0.70
     Davidson diagonalization with overlap
     ethr =  1.00E-02,  avg # of iterations =  3.0

     Threshold (ethr) on eigenvalues was too large:
     Diagonalizing with lowered threshold

     Davidson diagonalization with overlap
     ethr =  3.49E-04,  avg # of iterations =  7.0

     negative rho (up, down):  8.222E-04 0.000E+00

     total energy              =    -329.36022434 Ry
     Harris-Foulkes estimate   =    -329.50905764 Ry
     estimated scf accuracy    <       0.25208277 Ry

[...]

     End of self-consistent calculation

          k = 0.0000 0.0000 0.0000 ( 22119 PWs)   bands (ev):

    -8.3269  -7.8451  -7.5921  -7.2086  -7.0752  -6.8822  -6.7586  -6.4446
    -6.4008  -5.9969  -5.8927  -5.7767  -5.7473  -5.5515  -5.5056  -5.4451
    -5.2352  -5.2122  -5.1456  -5.1112  -5.0982  -5.0294  -4.9380  -4.9172
    -4.7701  -4.4027  -4.3935  -3.6147  -2.4177  -2.3876  -0.3294  -0.0992
     0.3286   0.5259

     the Fermi energy is    -3.5806 ev

!    total energy              =    -329.45638527 Ry
     Harris-Foulkes estimate   =    -329.45638528 Ry
     estimated scf accuracy    <          1.8E-09 Ry

     The total energy is the sum of the following terms:

     one-electron contribution =    -614.55338354 Ry
     hartree contribution      =     328.78711757 Ry
     xc contribution           =     -51.42085351 Ry
     ewald contribution        =       7.73527190 Ry
     smearing contrib. (-TS)   =      -0.00453768 Ry

     convergence has been achieved in  12 iterations

     Forces acting on atoms (Ry/au):

     atom    1 type  1   force =    -0.02112199    0.00156960    0.00243027
     atom    2 type  1   force =    -0.00529988    0.00523139    0.00538184
     atom    3 type  1   force =     0.00594874    0.00313071   -0.02598657
     atom    4 type  1   force =    -0.00903848   -0.00962675   -0.00108002
     atom    5 type  1   force =     0.02951161   -0.00030494    0.01925447

     Total force =     0.051737     Total SCF correction =     0.000172

     BFGS Geometry Optimization

     number of scf cycles    =   1
     number of bfgs steps    =   0

     energy   new            =    -329.4563852668 Ry

     new trust radius        =       0.0352386589 bohr
     new conv_thr            =       0.0000000100 Ry

ATOMIC_POSITIONS (bohr)
Au      -1.759243993   1.033915602  -0.649303727
Au      -0.081673885   2.817051386   3.991701841
Au       2.965812743   2.517209707  -0.122542573
Au       4.415417521   4.717212246   5.787076984
Au       6.331158613   0.784591059   3.052725475

     Writing output data file pwscf.save
     Check: negative starting charge=   -0.006162
     NEW-OLD atomic charge density approx. for the potential
     Check: negative starting charge=   -0.006142

[...]

     energy   old            =    -329.4563852668 Ry
     energy   new            =    -329.4587362608 Ry

     CASE: energy  _new < energy  _old

[...]

     iteration #  1     ecut=    30.00 Ry     beta=0.70
     Davidson diagonalization with overlap
     c_bands:  1 eigenvalues not converged
     ethr =  1.00E-06,  avg # of iterations = 20.0

[...]

     WARNING: bfgs curvature condition failed, Theta= 0.933
     new trust radius        =       0.1794067268 bohr
     new conv_thr            =       0.0000000013 Ry

[...]

     iteration #  1     ecut=    30.00 Ry     beta=0.70
     Davidson diagonalization with overlap
     c_bands:  1 eigenvalues not converged
     ethr =  1.00E-06,  avg # of iterations = 20.0

[...]

     number of scf cycles    =  34
     number of bfgs steps    =  33

     energy   old            =    -329.4854873631 Ry
     energy   new            =    -329.4854973344 Ry

     CASE: energy  _new < energy  _old

     new trust radius        =       0.0067505922 bohr
     new conv_thr            =            1.0E-10 Ry

ATOMIC_POSITIONS (bohr)
Au      -2.127192660   1.654425375  -0.798237193
Au      -0.062883830   3.398314174   3.582353773
Au       2.889613603   1.108284859  -0.000711766
Au       4.149167098   4.035428675   6.394461401
Au       7.022766788   1.673526918   2.881791785

     Writing output data file pwscf.save
     Check: negative starting charge=   -0.006325
     NEW-OLD atomic charge density approx. for the potential
     Check: negative starting charge=   -0.006327

     negative rho (up, down):  2.222E-06 0.000E+00

     Self-consistent Calculation

[...]

     Threshold (ethr) on eigenvalues was too large:
     Diagonalizing with lowered threshold

     Davidson diagonalization with overlap
     ethr =  2.84E-08,  avg # of iterations =  1.0

[...]

     total energy              =    -329.48550747 Ry
     Harris-Foulkes estimate   =    -329.48550749 Ry
     estimated scf accuracy    <          1.3E-10 Ry

     iteration # 10     ecut=    30.00 Ry     beta=0.70
     Davidson diagonalization with overlap
     ethr =  2.34E-13,  avg # of iterations =  2.0

     End of self-consistent calculation

          k = 0.0000 0.0000 0.0000 ( 22119 PWs)   bands (ev):

    -8.2242  -7.5400  -7.4896  -7.3422  -7.0478  -6.6419  -6.3638  -6.2482
    -6.2239  -6.1463  -6.1233  -5.7168  -5.6247  -5.6151  -5.5346  -5.4833
    -5.2711  -5.2234  -5.2216  -5.0685  -5.0519  -5.0118  -4.9186  -4.8903
    -4.8543  -4.6947  -4.3147  -3.7862  -2.5543  -2.0790  -0.4958  -0.2953
     0.3474   0.8323

     the Fermi energy is    -3.7790 ev

!    total energy              =    -329.48550749 Ry
     Harris-Foulkes estimate   =    -329.48550747 Ry
     estimated scf accuracy    <          1.5E-11 Ry

     The total energy is the sum of the following terms:

     one-electron contribution =    -598.97259341 Ry
     hartree contribution      =     321.03883729 Ry
     xc contribution           =     -51.40958524 Ry
     ewald contribution        =      -0.14280255 Ry
     smearing contrib. (-TS)   =       0.00063642 Ry

     convergence has been achieved in  10 iterations

     Forces acting on atoms (Ry/au):

     atom    1 type  1   force =     0.00059936    0.00087001   -0.00002310
     atom    2 type  1   force =    -0.00019585   -0.00011587    0.00028479
     atom    3 type  1   force =    -0.00045800   -0.00042962   -0.00052137
     atom    4 type  1   force =    -0.00050179    0.00001647   -0.00039966
     atom    5 type  1   force =     0.00055628   -0.00034098    0.00065934

     Total force =     0.001785     Total SCF correction =     0.000015

     bfgs converged in  35 scf cycles and  34 bfgs steps
     (criteria: energy <  1.0E-04, force <  1.0E-03)

     End of BFGS Geometry Optimization

     Final energy   =    -329.4855074873 Ry
Begin final coordinates

ATOMIC_POSITIONS (bohr)
Au      -2.127192660   1.654425375  -0.798237193
Au      -0.062883830   3.398314174   3.582353773
Au       2.889613603   1.108284859  -0.000711766
Au       4.149167098   4.035428675   6.394461401
Au       7.022766788   1.673526918   2.881791785
End final coordinates

     Writing output data file pwscf.save

     General routines

     Parallel routines

   This run was terminated on:   1:22: 7   4Aug2017

   JOB DONE.