     Program PWSCF v.6.0 (svn rev. 13079) starts on  4Aug2017 at  2: 2: 2

     Current dimensions of program PWSCF are:
     Max number of different atomic species (ntypx) = 10
     Max number of k-points (npk) =  40000
     Max angular momentum in pseudopotentials (lmaxx) =  3
     Message from routine iosys:
     pot_extrapolation='second-order' not available, using 'atomic'
     Message from routine iosys:
     wfc_extrapolation='second-order' not available, using 'atomic'

     Subspace diagonalization in iterative solution of the eigenvalue problem:
     a serial algorithm will be used

     bravais-lattice index     =            1
     lattice parameter (alat)  =      20.0000  a.u.
     unit-cell volume          =    8000.0000 (a.u.)^3
     number of atoms/cell      =            5
     number of atomic types    =            1
     number of electrons       =        55.00
     number of Kohn-Sham states=           34
     kinetic-energy cutoff     =      30.0000  Ry
     charge density cutoff     =     120.0000  Ry
     convergence threshold     =      1.0E-08
     mixing beta               =       0.7000
     number of iterations used =            8  plain     mixing
     Exchange-correlation      = BLYP ( 1  3  1  3 0 0)
     nstep                     =           50

     celldm(1)=  20.000000  celldm(2)=   0.000000  celldm(3)=   0.000000
     celldm(4)=   0.000000  celldm(5)=   0.000000  celldm(6)=   0.000000

     crystal axes: (cart. coord. in units of alat)
               a(1) = (   1.000000   0.000000   0.000000 )
               a(2) = (   0.000000   1.000000   0.000000 )
               a(3) = (   0.000000   0.000000   1.000000 )

     reciprocal axes: (cart. coord. in units 2 pi/alat)
               b(1) = (  1.000000  0.000000  0.000000 )
               b(2) = (  0.000000  1.000000  0.000000 )
               b(3) = (  0.000000  0.000000  1.000000 )

     PseudoPot. # 1 for Au read from file:
     ./Au.blyp-d-hgh.UPF
     MD5 check sum: c10d8bae01f806c36a1643a1c69a8479
     Pseudo is Norm-conserving, Zval = 11.0
     Generated in analytical, separable form
     Using radial grid of 1279 points,  6 beta functions with:
                l(1) =   0
                l(2) =   0
                l(3) =   1
                l(4) =   1
                l(5) =   2
                l(6) =   2

     atomic species   valence    mass     pseudopotential
        Au            11.00    28.08600     Au( 1.00)

     No symmetry found

   Cartesian axes

     site n.     atom                  positions (alat units)
         1           Au  tau(   1) = (  -0.0903873   0.1172405  -0.0252659  )
         2           Au  tau(   2) = (   0.0047973   0.1263729   0.2165307  )
         3           Au  tau(   3) = (   0.1459455   0.1068734   0.0079905  )
         4           Au  tau(   4) = (   0.2279655   0.2245175   0.2942985  )
         5           Au  tau(   5) = (   0.3484405   0.0576063   0.1379946  )

     number of k points=     1  Marzari-Vanderbilt smearing, width (Ry)=  0.0250
                       cart. coord. in units 2pi/alat
        k(    1) = (   0.0000000   0.0000000   0.0000000), wk =   2.0000000

     Initial potential from superposition of free atoms
     Check: negative starting charge=   -0.006334

     starting charge   54.99940, renormalised to   55.00000

     negative rho (up, down):  6.334E-03 0.000E+00
     Starting wfc are   45 randomized atomic wfcs

     Self-consistent Calculation

     iteration #  1     ecut=    30.00 Ry     beta=0.70
     Davidson diagonalization with overlap
     ethr =  1.00E-02,  avg # of iterations =  3.0

     Threshold (ethr) on eigenvalues was too large:
     Diagonalizing with lowered threshold

     Davidson diagonalization with overlap
     ethr =  3.87E-04,  avg # of iterations =  7.0

     negative rho (up, down):  8.467E-04 0.000E+00

     total energy              =    -329.35628087 Ry
     Harris-Foulkes estimate   =    -329.52034143 Ry
     estimated scf accuracy    <       0.27556967 Ry

[...]

     End of self-consistent calculation

          k = 0.0000 0.0000 0.0000 ( 22119 PWs)   bands (ev):

    -8.6020  -7.8987  -7.7379  -7.2507  -7.0416  -6.9034  -6.6597  -6.5547
    -6.3099  -6.0044  -5.9104  -5.8149  -5.7928  -5.6227  -5.5605  -5.4762
    -5.2273  -5.1868  -5.1430  -5.1400  -5.1219  -4.9850  -4.9436  -4.8986
    -4.7400  -4.5085  -4.2964  -3.6765  -2.4295  -2.1774  -0.3773  -0.1593
     0.4175   0.6163

     the Fermi energy is    -3.6592 ev

!    total energy              =    -329.46328230 Ry
     Harris-Foulkes estimate   =    -329.46328230 Ry
     estimated scf accuracy    <          1.9E-09 Ry

     The total energy is the sum of the following terms:

     one-electron contribution =    -618.36873367 Ry
     hartree contribution      =     330.67270957 Ry
     xc contribution           =     -51.46115081 Ry
     ewald contribution        =       9.69485102 Ry
     smearing contrib. (-TS)   =      -0.00095842 Ry

     convergence has been achieved in  12 iterations

     Forces acting on atoms (Ry/au):

     atom    1 type  1   force =    -0.05739575    0.00078750   -0.01073512
     atom    2 type  1   force =    -0.01464057    0.00885855    0.01450000
     atom    3 type  1   force =     0.04592738   -0.00238686   -0.01649025
     atom    4 type  1   force =     0.00202904   -0.00990793   -0.00030290
     atom    5 type  1   force =     0.02407990    0.00264874    0.01302828

     Total force =     0.084612     Total SCF correction =     0.000166

     BFGS Geometry Optimization

     number of scf cycles    =   1
     number of bfgs steps    =   0

     energy   new            =    -329.4632822972 Ry

     new trust radius        =       0.0583963605 bohr
     new conv_thr            =       0.0000000100 Ry

ATOMIC_POSITIONS (bohr)
Au      -1.865140748   2.345597495  -0.516054124
Au       0.081304435   2.536315551   4.345113996
Au       2.964837380   2.135080143   0.143319746
Au       4.561339037   4.480441067   5.885667102
Au       6.992889896   1.154773744   2.772920281

     Writing output data file pwscf.save
     Check: negative starting charge=   -0.006334
     NEW-OLD atomic charge density approx. for the potential
     Check: negative starting charge=   -0.006316

[...]

     energy   old            =    -329.4632822972 Ry
     energy   new            =    -329.4688925862 Ry

     CASE: energy  _new < energy  _old

[...]

     iteration #  1     ecut=    30.00 Ry     beta=0.70
     Davidson diagonalization with overlap
     c_bands:  1 eigenvalues not converged
     ethr =  1.00E-06,  avg # of iterations = 20.0

[...]

     CASE: energy  _new > energy  _old

[...]

     iteration #  1     ecut=    30.00 Ry     beta=0.70
     Davidson diagonalization with overlap
     c_bands:  1 eigenvalues not converged
     ethr =  1.00E-06,  avg # of iterations = 20.0

[...]

     WARNING: bfgs curvature condition failed, Theta= 0.950
     new trust radius        =       0.0212982158 bohr
     new conv_thr            =            1.0E-10 Ry

[...]

     WARNING: info= 12 for Hessian
     new trust radius        =       0.0144873694 bohr
     new conv_thr            =            1.0E-10 Ry

[...]

     WARNING: info= 14 for Hessian
     new trust radius        =       0.0084566802 bohr
     new conv_thr            =            1.0E-10 Ry

[...]

     WARNING: info= 15 for Hessian
     uphill step: resetting bfgs history

[...]

     WARNING: bfgs curvature condition failed, Theta= 0.934
     new trust radius        =       0.0044429091 bohr
     new conv_thr            =            1.0E-10 Ry

[...]

     Self-consistent Calculation

[...]

     Threshold (ethr) on eigenvalues was too large:
     Diagonalizing with lowered threshold

     Davidson diagonalization with overlap
     ethr =  1.33E-08,  avg # of iterations =  1.0

[...]

     total energy              =    -329.49181998 Ry
     Harris-Foulkes estimate   =    -329.49181998 Ry
     estimated scf accuracy    <          2.8E-10 Ry

     iteration #  9     ecut=    30.00 Ry     beta=0.70
     Davidson diagonalization with overlap
     ethr =  5.11E-13,  avg # of iterations =  3.0

     End of self-consistent calculation

          k = 0.0000 0.0000 0.0000 ( 22119 PWs)   bands (ev):

    -8.5383  -7.7979  -7.6710  -7.2271  -6.8479  -6.8297  -6.6008  -6.4957
    -6.3016  -6.0939  -5.9404  -5.7748  -5.7353  -5.6908  -5.4687  -5.3580
    -5.3141  -5.2552  -5.2049  -5.1809  -5.1721  -5.1180  -4.9946  -4.9325
    -4.8333  -4.7324  -4.4871  -3.7828  -2.4765  -2.2028  -0.5603  -0.1936
     0.5222   0.8544

     the Fermi energy is    -3.7499 ev

!    total energy              =    -329.49182001 Ry
     Harris-Foulkes estimate   =    -329.49181998 Ry
     estimated scf accuracy    <          3.6E-11 Ry

     The total energy is the sum of the following terms:

     one-electron contribution =    -609.32935027 Ry
     hartree contribution      =     326.09071453 Ry
     xc contribution           =     -51.40240829 Ry
     ewald contribution        =       5.15364055 Ry
     smearing contrib. (-TS)   =      -0.00441652 Ry

     convergence has been achieved in   9 iterations

     Forces acting on atoms (Ry/au):

     atom    1 type  1   force =     0.00045461    0.00229351    0.00077806
     atom    2 type  1   force =    -0.00004834    0.00045036   -0.00000634
     atom    3 type  1   force =     0.00081456   -0.00078442   -0.00136501
     atom    4 type  1   force =    -0.00072398   -0.00102444   -0.00089801
     atom    5 type  1   force =    -0.00049685   -0.00093500    0.00149130

     Total force =     0.003892     Total SCF correction =     0.000021

     number of scf cycles    =  50
     number of bfgs steps    =  48

     energy   old            =    -329.4917805520 Ry
     energy   new            =    -329.4918200088 Ry

     CASE: energy  _new < energy  _old

     new trust radius        =       0.0099965454 bohr
     new conv_thr            =            1.0E-10 Ry

ATOMIC_POSITIONS (bohr)
Au      -1.764266058   2.148060177  -0.630844542
Au      -0.589067353   3.906352641   4.083817030
Au       3.055070729   1.733756422   0.789928110
Au       4.268275841   3.400361970   5.831119926
Au       7.765216841   1.463676791   2.556946476

     Writing output data file pwscf.save
     Check: negative starting charge=   -0.006461
     NEW-OLD atomic charge density approx. for the potential
     Check: negative starting charge=   -0.006461

     negative rho (up, down):  5.631E-06 0.000E+00

     Writing output data file pwscf.save

     General routines

     Parallel routines

   This run was terminated on:   2: 4:20   4Aug2017

   JOB DONE.