     Program PWSCF v.6.0 (svn rev. 13079) starts on  3Aug2017 at 14:59: 7

     Current dimensions of program PWSCF are:
     Max number of different atomic species (ntypx) = 10
     Max number of k-points (npk) =  40000
     Max angular momentum in pseudopotentials (lmaxx) =  3
     Message from routine iosys:
     pot_extrapolation='second-order' not available, using 'atomic'
     Message from routine iosys:
     wfc_extrapolation='second-order' not available, using 'atomic'

     Subspace diagonalization in iterative solution of the eigenvalue problem:
     a serial algorithm will be used

     bravais-lattice index     =            1
     lattice parameter (alat)  =      20.0000  a.u.
     unit-cell volume          =    8000.0000 (a.u.)^3
     number of atoms/cell      =            5
     number of atomic types    =            1
     number of electrons       =        55.00
     number of Kohn-Sham states=           34
     kinetic-energy cutoff     =      30.0000  Ry
     charge density cutoff     =     120.0000  Ry
     convergence threshold     =      1.0E-08
     mixing beta               =       0.7000
     number of iterations used =            8  plain     mixing
     Exchange-correlation      = BLYP ( 1  3  1  3 0 0)
     nstep                     =           50

     celldm(1)=  20.000000  celldm(2)=   0.000000  celldm(3)=   0.000000
     celldm(4)=   0.000000  celldm(5)=   0.000000  celldm(6)=   0.000000

     crystal axes: (cart. coord. in units of alat)
               a(1) = (   1.000000   0.000000   0.000000 )
               a(2) = (   0.000000   1.000000   0.000000 )
               a(3) = (   0.000000   0.000000   1.000000 )

     reciprocal axes: (cart. coord. in units 2 pi/alat)
               b(1) = (  1.000000  0.000000  0.000000 )
               b(2) = (  0.000000  1.000000  0.000000 )
               b(3) = (  0.000000  0.000000  1.000000 )

     PseudoPot. # 1 for Au read from file:
     ./Au.blyp-d-hgh.UPF
     MD5 check sum: c10d8bae01f806c36a1643a1c69a8479
     Pseudo is Norm-conserving, Zval = 11.0
     Generated in analytical, separable form
     Using radial grid of 1279 points,  6 beta functions with:
                l(1) =   0
                l(2) =   0
                l(3) =   1
                l(4) =   1
                l(5) =   2
                l(6) =   2

     atomic species   valence    mass     pseudopotential
        Au            11.00    28.08600     Au( 1.00)

     No symmetry found

   Cartesian axes

     site n.     atom                  positions (alat units)
         1           Au  tau(   1) = (  -0.0999195   0.1045053  -0.0192262  )
         2           Au  tau(   2) = (  -0.0463839   0.1732020   0.2121046  )
         3           Au  tau(   3) = (   0.1442756   0.0753475   0.0299543  )
         4           Au  tau(   4) = (   0.2136531   0.1867797   0.2747535  )
         5           Au  tau(   5) = (   0.3785388   0.0877009   0.1204236  )

     number of k points=     1  Marzari-Vanderbilt smearing, width (Ry)=  0.0250
                       cart. coord. in units 2pi/alat
        k(    1) = (   0.0000000   0.0000000   0.0000000), wk =   2.0000000

     Initial potential from superposition of free atoms
     Check: negative starting charge=   -0.006422

     starting charge   54.99940, renormalised to   55.00000

     negative rho (up, down):  6.422E-03 0.000E+00
     Starting wfc are   45 randomized atomic wfcs

     Self-consistent Calculation

     iteration #  1     ecut=    30.00 Ry     beta=0.70
     Davidson diagonalization with overlap
     ethr =  1.00E-02,  avg # of iterations =  3.0

     Threshold (ethr) on eigenvalues was too large:
     Diagonalizing with lowered threshold

     Davidson diagonalization with overlap
     ethr =  4.22E-04,  avg # of iterations =  5.0

     negative rho (up, down):  8.650E-04 0.000E+00

     total energy              =    -329.36568902 Ry
     Harris-Foulkes estimate   =    -329.54310436 Ry
     estimated scf accuracy    <       0.29174602 Ry

[...]

     End of self-consistent calculation

          k = 0.0000 0.0000 0.0000 ( 22119 PWs)   bands (ev):

    -8.5051  -7.8987  -7.6581  -7.1489  -6.9623  -6.9062  -6.8331  -6.5572
    -6.2046  -6.1940  -6.0457  -5.7748  -5.7426  -5.6679  -5.4151  -5.3586
    -5.2962  -5.2744  -5.2150  -5.1598  -5.1546  -5.1333  -4.9982  -4.9090
    -4.9080  -4.6545  -4.4475  -3.7041  -2.5472  -2.1702  -0.5556  -0.1908
     0.5475   0.8680

     the Fermi energy is    -3.6670 ev

!    total energy              =    -329.48279838 Ry
     Harris-Foulkes estimate   =    -329.48279845 Ry
     estimated scf accuracy    <          5.4E-09 Ry

     The total energy is the sum of the following terms:

     one-electron contribution =    -612.07727636 Ry
     hartree contribution      =     327.44987590 Ry
     xc contribution           =     -51.42141125 Ry
     ewald contribution        =       6.57143281 Ry
     smearing contrib. (-TS)   =      -0.00541947 Ry

     convergence has been achieved in  11 iterations

     Forces acting on atoms (Ry/au):

     atom    1 type  1   force =    -0.00877690   -0.00774824   -0.02451272
     atom    2 type  1   force =     0.02035830    0.00759759    0.02087249
     atom    3 type  1   force =    -0.00144347    0.00465155    0.00528629
     atom    4 type  1   force =    -0.02949949    0.00787132    0.01260226
     atom    5 type  1   force =     0.01936155   -0.01237220   -0.01424832

     Total force =     0.059325     Total SCF correction =     0.000313

     BFGS Geometry Optimization

     number of scf cycles    =   1
     number of bfgs steps    =   0

     energy   new            =    -329.4827983763 Ry

     new trust radius        =       0.0330301994 bohr
     new conv_thr            =       0.0000000100 Ry

ATOMIC_POSITIONS (bohr)
Au      -2.007166900   2.082357757  -0.409036716
Au      -0.907319697   3.471638585   4.262964494
Au       2.884068528   1.511600546   0.604372290
Au       4.243563515   3.743466316   5.507672255
Au       7.590136554   1.741646796   2.394223677

     Writing output data file pwscf.save
     Check: negative starting charge=   -0.006422
     NEW-OLD atomic charge density approx. for the potential
     Check: negative starting charge=   -0.006398

[...]

     energy   old            =    -329.4827983763 Ry
     energy   new            =    -329.4857715208 Ry

     CASE: energy  _new < energy  _old

[...]

     WARNING: bfgs curvature condition failed, Theta= 0.943
     new trust radius        =       0.0452885178 bohr
     new conv_thr            =            1.0E-10 Ry

[...]

     CASE: energy  _new > energy  _old

[...]

     number of scf cycles    =  29
     number of bfgs steps    =  27

     energy   old            =    -329.4914214045 Ry
     energy   new            =    -329.4914397240 Ry

     CASE: energy  _new < energy  _old

     new trust radius        =       0.0156871128 bohr
     new conv_thr            =            1.0E-10 Ry

ATOMIC_POSITIONS (bohr)
Au      -2.003556182   1.911094352  -0.580524728
Au      -0.811992888   3.707899220   4.126328489
Au       2.855872792   1.668567570   0.735384727
Au       4.153819144   3.631701289   5.657649341
Au       7.609139132   1.631447569   2.421358170

     Writing output data file pwscf.save
     Check: negative starting charge=   -0.006534
     NEW-OLD atomic charge density approx. for the potential
     Check: negative starting charge=   -0.006535

[...]

     Self-consistent Calculation

[...]

     Threshold (ethr) on eigenvalues was too large:
     Diagonalizing with lowered threshold

     Davidson diagonalization with overlap
     ethr =  7.11E-08,  avg # of iterations =  1.0

     negative rho (up, down):  5.920E-08 0.000E+00

[...]

     total energy              =    -329.49145971 Ry
     Harris-Foulkes estimate   =    -329.49145967 Ry
     estimated scf accuracy    <          3.9E-10 Ry

     iteration #  9     ecut=    30.00 Ry     beta=0.70
     Davidson diagonalization with overlap
     ethr =  7.12E-13,  avg # of iterations =  3.0

     End of self-consistent calculation

          k = 0.0000 0.0000 0.0000 ( 22119 PWs)   bands (ev):

    -8.5282  -7.7990  -7.6491  -7.2330  -6.8456  -6.8311  -6.6216  -6.4839
    -6.3035  -6.0856  -5.9613  -5.7736  -5.7375  -5.6867  -5.4662  -5.3613
    -5.3111  -5.2515  -5.1983  -5.1865  -5.1725  -5.1255  -4.9951  -4.9251
    -4.8407  -4.7334  -4.4806  -3.7810  -2.4991  -2.1961  -0.5652  -0.1935
     0.5284   0.8998

     the Fermi energy is    -3.7486 ev

!    total energy              =    -329.49145971 Ry
     Harris-Foulkes estimate   =    -329.49145971 Ry
     estimated scf accuracy    <          4.1E-11 Ry

     The total energy is the sum of the following terms:

     one-electron contribution =    -609.67991578 Ry
     hartree contribution      =     326.26734032 Ry
     xc contribution           =     -51.40341308 Ry
     ewald contribution        =       5.32885321 Ry
     smearing contrib. (-TS)   =      -0.00432438 Ry

     convergence has been achieved in   9 iterations

     Forces acting on atoms (Ry/au):

     atom    1 type  1   force =    -0.00041977    0.00033319   -0.00063719
     atom    2 type  1   force =     0.00093750   -0.00030015   -0.00025897
     atom    3 type  1   force =     0.00017032    0.00002419    0.00063008
     atom    4 type  1   force =    -0.00091052   -0.00000549   -0.00070270
     atom    5 type  1   force =     0.00022247   -0.00005174    0.00096878

     Total force =     0.002114     Total SCF correction =     0.000027

     bfgs converged in  30 scf cycles and  28 bfgs steps
     (criteria: energy <  1.0E-04, force <  1.0E-03)

     End of BFGS Geometry Optimization

     Final energy   =    -329.4914597062 Ry
Begin final coordinates

ATOMIC_POSITIONS (bohr)
Au      -2.003556182   1.911094352  -0.580524728
Au      -0.811992888   3.707899220   4.126328489
Au       2.855872792   1.668567570   0.735384727
Au       4.153819144   3.631701289   5.657649341
Au       7.609139132   1.631447569   2.421358170
End final coordinates

     Writing output data file pwscf.save

     General routines

     Parallel routines

   This run was terminated on:  15: 0:37   3Aug2017

   JOB DONE.