     Program PWSCF v.6.0 (svn rev. 13079) starts on  3Aug2017 at 11:45:33

     Current dimensions of program PWSCF are:
     Max number of different atomic species (ntypx) = 10
     Max number of k-points (npk) =  40000
     Max angular momentum in pseudopotentials (lmaxx) =  3
     Message from routine iosys:
     pot_extrapolation='second-order' not available, using 'atomic'
     Message from routine iosys:
     wfc_extrapolation='second-order' not available, using 'atomic'

     Subspace diagonalization in iterative solution of the eigenvalue problem:
     a serial algorithm will be used

     bravais-lattice index     =            1
     lattice parameter (alat)  =      20.0000  a.u.
     unit-cell volume          =    8000.0000 (a.u.)^3
     number of atoms/cell      =            5
     number of atomic types    =            1
     number of electrons       =        55.00
     number of Kohn-Sham states=           34
     kinetic-energy cutoff     =      30.0000  Ry
     charge density cutoff     =     120.0000  Ry
     convergence threshold     =      1.0E-08
     mixing beta               =       0.7000
     number of iterations used =            8  plain     mixing
     Exchange-correlation      = BLYP ( 1  3  1  3 0 0)
     nstep                     =           50

     celldm(1)=  20.000000  celldm(2)=   0.000000  celldm(3)=   0.000000
     celldm(4)=   0.000000  celldm(5)=   0.000000  celldm(6)=   0.000000

     crystal axes: (cart. coord. in units of alat)
               a(1) = (   1.000000   0.000000   0.000000 )
               a(2) = (   0.000000   1.000000   0.000000 )
               a(3) = (   0.000000   0.000000   1.000000 )

     reciprocal axes: (cart. coord. in units 2 pi/alat)
               b(1) = (  1.000000  0.000000  0.000000 )
               b(2) = (  0.000000  1.000000  0.000000 )
               b(3) = (  0.000000  0.000000  1.000000 )

     PseudoPot. # 1 for Au read from file:
     ./Au.blyp-d-hgh.UPF
     MD5 check sum: c10d8bae01f806c36a1643a1c69a8479
     Pseudo is Norm-conserving, Zval = 11.0
     Generated in analytical, separable form
     Using radial grid of 1279 points,  6 beta functions with:
                l(1) =   0
                l(2) =   0
                l(3) =   1
                l(4) =   1
                l(5) =   2
                l(6) =   2

     atomic species   valence    mass     pseudopotential
        Au            11.00    28.08600     Au( 1.00)

     No symmetry found

   Cartesian axes

     site n.     atom                  positions (alat units)
         1           Au  tau(   1) = (  -0.0803959   0.0762895  -0.0370936  )
         2           Au  tau(   2) = (  -0.0452615   0.1828706   0.1903280  )
         3           Au  tau(   3) = (   0.1595818   0.0579689   0.0351472  )
         4           Au  tau(   4) = (   0.1987797   0.2156801   0.2608149  )
         5           Au  tau(   5) = (   0.3788615   0.0693573   0.1593188  )

     number of k points=     1  Marzari-Vanderbilt smearing, width (Ry)=  0.0250
                       cart. coord. in units 2pi/alat
        k(    1) = (   0.0000000   0.0000000   0.0000000), wk =   2.0000000

     Initial potential from superposition of free atoms
     Check: negative starting charge=   -0.006298

     starting charge   54.99940, renormalised to   55.00000

     negative rho (up, down):  6.298E-03 0.000E+00
     Starting wfc are   45 randomized atomic wfcs

     Self-consistent Calculation

     iteration #  1     ecut=    30.00 Ry     beta=0.70
     Davidson diagonalization with overlap
     ethr =  1.00E-02,  avg # of iterations =  3.0

     Threshold (ethr) on eigenvalues was too large:
     Diagonalizing with lowered threshold

     Davidson diagonalization with overlap
     ethr =  4.04E-04,  avg # of iterations =  6.0

     negative rho (up, down):  8.427E-04 0.000E+00

     total energy              =    -329.37720588 Ry
     Harris-Foulkes estimate   =    -329.54470924 Ry
     estimated scf accuracy    <       0.27831717 Ry

[...]

     End of self-consistent calculation

          k = 0.0000 0.0000 0.0000 ( 22119 PWs)   bands (ev):

    -8.3987  -7.7346  -7.6275  -7.1710  -6.9829  -6.7835  -6.7534  -6.4491
    -6.2478  -6.0757  -5.9768  -5.7579  -5.7174  -5.6657  -5.4300  -5.3271
    -5.3064  -5.2301  -5.1794  -5.1750  -5.1657  -5.1320  -4.9770  -4.9085
    -4.8457  -4.6648  -4.3884  -3.7792  -2.4853  -2.1579  -0.5104  -0.1882
     0.5191   0.7239

     the Fermi energy is    -3.7613 ev

!    total energy              =    -329.48767918 Ry
     Harris-Foulkes estimate   =    -329.48767926 Ry
     estimated scf accuracy    <          9.8E-09 Ry

     The total energy is the sum of the following terms:

     one-electron contribution =    -608.11792913 Ry
     hartree contribution      =     325.52907900 Ry
     xc contribution           =     -51.41344984 Ry
     ewald contribution        =       4.51585892 Ry
     smearing contrib. (-TS)   =      -0.00123813 Ry

     convergence has been achieved in  12 iterations

     Forces acting on atoms (Ry/au):

     atom    1 type  1   force =    -0.00550041   -0.00321687   -0.00997439
     atom    2 type  1   force =     0.00288460    0.00071613   -0.00003938
     atom    3 type  1   force =    -0.00308975    0.00601334    0.01101152
     atom    4 type  1   force =    -0.00170222    0.00029404    0.00248404
     atom    5 type  1   force =     0.00740777   -0.00380665   -0.00348179

     Total force =     0.020163     Total SCF correction =     0.000318

     BFGS Geometry Optimization

     number of scf cycles    =   1
     number of bfgs steps    =   0

     energy   new            =    -329.4876791832 Ry

     new trust radius        =       0.0129213169 bohr
     new conv_thr            =       0.0000000100 Ry

ATOMIC_POSITIONS (bohr)
Au      -1.613418408   1.522574133  -0.751846390
Au      -0.902346396   3.658129132   3.806521621
Au       3.188547255   1.165390344   0.713955521
Au       3.973890777   4.313897037   5.218782038
Au       7.584637772   1.383338354   3.182893210

     Writing output data file pwscf.save
     Check: negative starting charge=   -0.006298
     NEW-OLD atomic charge density approx. for the potential
     Check: negative starting charge=   -0.006296

[...]

     energy   old            =    -329.4876791832 Ry
     energy   new            =    -329.4880662546 Ry

     CASE: energy  _new < energy  _old

     WARNING: bfgs curvature condition failed, Theta= 0.887
     new trust radius        =       0.0142134486 bohr
     new conv_thr            =       0.0000000004 Ry

[...]

     WARNING: bfgs curvature condition failed, Theta= 0.968
     new trust radius        =       0.0738689166 bohr
     new conv_thr            =       0.0000000002 Ry

[...]

     CASE: energy  _new > energy  _old

[...]

     number of scf cycles    =  31
     number of bfgs steps    =  29

     energy   old            =    -329.4924781553 Ry
     energy   new            =    -329.4924979470 Ry

     CASE: energy  _new < energy  _old

     new trust radius        =       0.0037247100 bohr
     new conv_thr            =            1.0E-10 Ry

ATOMIC_POSITIONS (bohr)
Au      -1.643976167   1.388707910  -0.910624979
Au      -0.784159652   3.903540891   3.531669910
Au       3.078207070   1.294705766   0.887621127
Au       3.975077071   4.095904804   5.554912483
Au       7.606162678   1.360469630   3.106727458

     Writing output data file pwscf.save
     Check: negative starting charge=   -0.006344
     NEW-OLD atomic charge density approx. for the potential
     Check: negative starting charge=   -0.006345

     negative rho (up, down):  3.006E-08 0.000E+00

     Self-consistent Calculation

[...]

     Threshold (ethr) on eigenvalues was too large:
     Diagonalizing with lowered threshold

     Davidson diagonalization with overlap
     ethr =  4.00E-09,  avg # of iterations =  2.0

[...]

     total energy              =    -329.49250426 Ry
     Harris-Foulkes estimate   =    -329.49250423 Ry
     estimated scf accuracy    <          1.2E-10 Ry

     iteration #  9     ecut=    30.00 Ry     beta=0.70
     Davidson diagonalization with overlap
     ethr =  2.22E-13,  avg # of iterations =  3.0

     End of self-consistent calculation

          k = 0.0000 0.0000 0.0000 ( 22119 PWs)   bands (ev):

    -8.5065  -7.7737  -7.6525  -7.2251  -6.8698  -6.8139  -6.5984  -6.4773
    -6.3059  -6.0745  -5.9535  -5.7672  -5.7285  -5.6851  -5.4497  -5.3680
    -5.3150  -5.2437  -5.1969  -5.1848  -5.1669  -5.1235  -4.9939  -4.9222
    -4.8525  -4.7150  -4.4798  -3.7788  -2.4533  -2.2085  -0.5388  -0.1626
     0.4689   0.8268

     the Fermi energy is    -3.7464 ev

!    total energy              =    -329.49250426 Ry
     Harris-Foulkes estimate   =    -329.49250426 Ry
     estimated scf accuracy    <          1.8E-11 Ry

     The total energy is the sum of the following terms:

     one-electron contribution =    -607.08582250 Ry
     hartree contribution      =     324.97801062 Ry
     xc contribution           =     -51.39927157 Ry
     ewald contribution        =       4.01887691 Ry
     smearing contrib. (-TS)   =      -0.00429772 Ry

     convergence has been achieved in   9 iterations

     Forces acting on atoms (Ry/au):

     atom    1 type  1   force =     0.00027325    0.00007368   -0.00022470
     atom    2 type  1   force =     0.00018649   -0.00013702   -0.00008478
     atom    3 type  1   force =     0.00002170   -0.00028408    0.00033394
     atom    4 type  1   force =     0.00001760   -0.00041124   -0.00032519
     atom    5 type  1   force =    -0.00049905    0.00075867    0.00030072

     Total force =     0.001255     Total SCF correction =     0.000016

     bfgs converged in  32 scf cycles and  30 bfgs steps
     (criteria: energy <  1.0E-04, force <  1.0E-03)

     End of BFGS Geometry Optimization

     Final energy   =    -329.4925042628 Ry
Begin final coordinates

ATOMIC_POSITIONS (bohr)
Au      -1.643976167   1.388707910  -0.910624979
Au      -0.784159652   3.903540891   3.531669910
Au       3.078207070   1.294705766   0.887621127
Au       3.975077071   4.095904804   5.554912483
Au       7.606162678   1.360469630   3.106727458
End final coordinates

     Writing output data file pwscf.save

     General routines

     Parallel routines

   This run was terminated on:  11:47: 1   3Aug2017

   JOB DONE.