     Program PWSCF v.6.0 (svn rev. 13079) starts on  3Aug2017 at 13:51: 5

     Current dimensions of program PWSCF are:
     Max number of different atomic species (ntypx) = 10
     Max number of k-points (npk) =  40000
     Max angular momentum in pseudopotentials (lmaxx) =  3
     Message from routine iosys:
     pot_extrapolation='second-order' not available, using 'atomic'
     Message from routine iosys:
     wfc_extrapolation='second-order' not available, using 'atomic'

     Subspace diagonalization in iterative solution of the eigenvalue problem:
     a serial algorithm will be used

     bravais-lattice index     =            1
     lattice parameter (alat)  =      20.0000  a.u.
     unit-cell volume          =    8000.0000 (a.u.)^3
     number of atoms/cell      =            5
     number of atomic types    =            1
     number of electrons       =        55.00
     number of Kohn-Sham states=           34
     kinetic-energy cutoff     =      30.0000  Ry
     charge density cutoff     =     120.0000  Ry
     convergence threshold     =      1.0E-08
     mixing beta               =       0.7000
     number of iterations used =            8  plain     mixing
     Exchange-correlation      = BLYP ( 1  3  1  3 0 0)
     nstep                     =           50

     celldm(1)=  20.000000  celldm(2)=   0.000000  celldm(3)=   0.000000
     celldm(4)=   0.000000  celldm(5)=   0.000000  celldm(6)=   0.000000

     crystal axes: (cart. coord. in units of alat)
               a(1) = (   1.000000   0.000000   0.000000 )
               a(2) = (   0.000000   1.000000   0.000000 )
               a(3) = (   0.000000   0.000000   1.000000 )

     reciprocal axes: (cart. coord. in units 2 pi/alat)
               b(1) = (  1.000000  0.000000  0.000000 )
               b(2) = (  0.000000  1.000000  0.000000 )
               b(3) = (  0.000000  0.000000  1.000000 )

     PseudoPot. # 1 for Au read from file:
     ./Au.blyp-d-hgh.UPF
     MD5 check sum: c10d8bae01f806c36a1643a1c69a8479
     Pseudo is Norm-conserving, Zval = 11.0
     Generated in analytical, separable form
     Using radial grid of 1279 points,  6 beta functions with:
                l(1) =   0
                l(2) =   0
                l(3) =   1
                l(4) =   1
                l(5) =   2
                l(6) =   2

     atomic species   valence    mass     pseudopotential
        Au            11.00    28.08600     Au( 1.00)

     No symmetry found

   Cartesian axes

     site n.     atom                  positions (alat units)
         1           Au  tau(   1) = (  -0.1063495   0.0750115  -0.0325568  )
         2           Au  tau(   2) = (  -0.0373517   0.1505638   0.2079481  )
         3           Au  tau(   3) = (   0.1431974   0.0966893   0.0330833  )
         4           Au  tau(   4) = (   0.2134051   0.1769105   0.2810308  )
         5           Au  tau(   5) = (   0.3877241   0.0757179   0.1112297  )

     number of k points=     1  Marzari-Vanderbilt smearing, width (Ry)=  0.0250
                       cart. coord. in units 2pi/alat
        k(    1) = (   0.0000000   0.0000000   0.0000000), wk =   2.0000000

     Initial potential from superposition of free atoms
     Check: negative starting charge=   -0.006596

     starting charge   54.99940, renormalised to   55.00000

     negative rho (up, down):  6.596E-03 0.000E+00
     Starting wfc are   45 randomized atomic wfcs

     Self-consistent Calculation

     iteration #  1     ecut=    30.00 Ry     beta=0.70
     Davidson diagonalization with overlap
     ethr =  1.00E-02,  avg # of iterations =  3.0

     Threshold (ethr) on eigenvalues was too large:
     Diagonalizing with lowered threshold

     Davidson diagonalization with overlap
     ethr =  3.94E-04,  avg # of iterations =  7.0

     negative rho (up, down):  9.093E-04 0.000E+00

     total energy              =    -329.38022388 Ry
     Harris-Foulkes estimate   =    -329.54332087 Ry
     estimated scf accuracy    <       0.27328109 Ry

[...]

     End of self-consistent calculation

          k = 0.0000 0.0000 0.0000 ( 22119 PWs)   bands (ev):

    -8.4574  -7.7523  -7.7408  -7.1832  -6.8071  -6.7141  -6.5732  -6.4807
    -6.2573  -6.0831  -5.8443  -5.7859  -5.6669  -5.6202  -5.5103  -5.3651
    -5.2960  -5.2826  -5.1977  -5.1713  -5.1623  -5.1098  -5.0298  -4.9734
    -4.8285  -4.6964  -4.5523  -3.7766  -2.5599  -2.2523  -0.5687  -0.1481
     0.4741   0.8060

     the Fermi energy is    -3.7378 ev

!    total energy              =    -329.48571474 Ry
     Harris-Foulkes estimate   =    -329.48571480 Ry
     estimated scf accuracy    <          6.2E-09 Ry

     The total energy is the sum of the following terms:

     one-electron contribution =    -605.98490618 Ry
     hartree contribution      =     324.43949718 Ry
     xc contribution           =     -51.38384939 Ry
     ewald contribution        =       3.44931184 Ry
     smearing contrib. (-TS)   =      -0.00576820 Ry

     convergence has been achieved in  11 iterations

     Forces acting on atoms (Ry/au):

     atom    1 type  1   force =     0.01182453    0.00253330    0.00775510
     atom    2 type  1   force =    -0.00559808    0.00359663    0.00531645
     atom    3 type  1   force =     0.00735374   -0.00938774   -0.01121314
     atom    4 type  1   force =     0.00180608   -0.00250798   -0.00429693
     atom    5 type  1   force =    -0.01538627    0.00576578    0.00243853

     Total force =     0.029169     Total SCF correction =     0.000321

     BFGS Geometry Optimization

     number of scf cycles    =   1
     number of bfgs steps    =   0

     energy   new            =    -329.4857147390 Ry

     new trust radius        =       0.0166110835 bohr
     new conv_thr            =       0.0000000100 Ry

ATOMIC_POSITIONS (bohr)
Au      -2.115166466   1.502763302  -0.643379904
Au      -0.752631082   3.014872629   4.164279446
Au       2.871301740   1.924397264   0.650453858
Au       4.269909081   3.535703021   5.616319067
Au       7.739096727   1.520122784   2.227032533

     Writing output data file pwscf.save
     Check: negative starting charge=   -0.006596
     NEW-OLD atomic charge density approx. for the potential
     Check: negative starting charge=   -0.006593

[...]

     energy   old            =    -329.4857147390 Ry
     energy   new            =    -329.4865083874 Ry

     CASE: energy  _new < energy  _old

     WARNING: bfgs curvature condition failed, Theta= 0.924
     new trust radius        =       0.0182721919 bohr
     new conv_thr            =       0.0000000008 Ry

[...]

     WARNING: bfgs curvature condition failed, Theta= 0.958
     new trust radius        =       0.0102806492 bohr
     new conv_thr            =            1.0E-10 Ry

[...]

     number of scf cycles    =  19
     number of bfgs steps    =  18

     energy   old            =    -329.4909539377 Ry
     energy   new            =    -329.4909736657 Ry

     CASE: energy  _new < energy  _old

     new trust radius        =       0.0096733955 bohr
     new conv_thr            =            1.0E-10 Ry

ATOMIC_POSITIONS (bohr)
Au      -1.965169305   1.563455079  -0.594901139
Au      -0.821818559   3.122251226   4.196216053
Au       2.936493868   1.623099907   0.591116960
Au       4.166647010   3.489879452   5.558141607
Au       7.696356987   1.699173336   2.264131519

     Writing output data file pwscf.save
     Check: negative starting charge=   -0.006517
     NEW-OLD atomic charge density approx. for the potential
     Check: negative starting charge=   -0.006517

     negative rho (up, down):  7.585E-06 0.000E+00

     Self-consistent Calculation

[...]

     Threshold (ethr) on eigenvalues was too large:
     Diagonalizing with lowered threshold

     Davidson diagonalization with overlap
     ethr =  3.69E-08,  avg # of iterations =  1.0

[...]

     total energy              =    -329.49098672 Ry
     Harris-Foulkes estimate   =    -329.49098675 Ry
     estimated scf accuracy    <          4.7E-10 Ry

     iteration #  9     ecut=    30.00 Ry     beta=0.70
     Davidson diagonalization with overlap
     ethr =  8.50E-13,  avg # of iterations =  3.0

     End of self-consistent calculation

          k = 0.0000 0.0000 0.0000 ( 22119 PWs)   bands (ev):

    -8.5188  -7.7920  -7.6515  -7.2352  -6.8592  -6.8188  -6.6277  -6.4822
    -6.2997  -6.0777  -5.9652  -5.7742  -5.7370  -5.6867  -5.4596  -5.3702
    -5.3142  -5.2483  -5.2007  -5.1834  -5.1751  -5.1254  -4.9963  -4.9272
    -4.8370  -4.7354  -4.4754  -3.7837  -2.5182  -2.1914  -0.5721  -0.2010
     0.5304   0.9014

     the Fermi energy is    -3.7522 ev

!    total energy              =    -329.49098671 Ry
     Harris-Foulkes estimate   =    -329.49098672 Ry
     estimated scf accuracy    <          9.6E-11 Ry

     The total energy is the sum of the following terms:

     one-electron contribution =    -610.28920486 Ry
     hartree contribution      =     326.57335031 Ry
     xc contribution           =     -51.40434402 Ry
     ewald contribution        =       5.63332055 Ry
     smearing contrib. (-TS)   =      -0.00410870 Ry

     convergence has been achieved in   9 iterations

     Forces acting on atoms (Ry/au):

     atom    1 type  1   force =    -0.00033775    0.00014938    0.00031503
     atom    2 type  1   force =    -0.00005133    0.00080858   -0.00055853
     atom    3 type  1   force =     0.00098923    0.00010454   -0.00009643
     atom    4 type  1   force =    -0.00084617   -0.00031349    0.00049801
     atom    5 type  1   force =     0.00024602   -0.00074901   -0.00015808

     Total force =     0.001978     Total SCF correction =     0.000038

     bfgs converged in  20 scf cycles and  19 bfgs steps
     (criteria: energy <  1.0E-04, force <  1.0E-03)

     End of BFGS Geometry Optimization

     Final energy   =    -329.4909867118 Ry
Begin final coordinates

ATOMIC_POSITIONS (bohr)
Au      -1.965169305   1.563455079  -0.594901139
Au      -0.821818559   3.122251226   4.196216053
Au       2.936493868   1.623099907   0.591116960
Au       4.166647010   3.489879452   5.558141607
Au       7.696356987   1.699173336   2.264131519
End final coordinates

     Writing output data file pwscf.save

     General routines

     Parallel routines

   This run was terminated on:  13:52: 4   3Aug2017

   JOB DONE.