     Program PWSCF v.6.0 (svn rev. 13079) starts on  4Aug2017 at  2: 6:35

     Current dimensions of program PWSCF are:
     Max number of different atomic species (ntypx) = 10
     Max number of k-points (npk) =  40000
     Max angular momentum in pseudopotentials (lmaxx) =  3
     Message from routine iosys:
     pot_extrapolation='second-order' not available, using 'atomic'
     Message from routine iosys:
     wfc_extrapolation='second-order' not available, using 'atomic'

     Subspace diagonalization in iterative solution of the eigenvalue problem:
     a serial algorithm will be used

     bravais-lattice index     =            1
     lattice parameter (alat)  =      20.0000  a.u.
     unit-cell volume          =    8000.0000 (a.u.)^3
     number of atoms/cell      =            5
     number of atomic types    =            1
     number of electrons       =        55.00
     number of Kohn-Sham states=           34
     kinetic-energy cutoff     =      30.0000  Ry
     charge density cutoff     =     120.0000  Ry
     convergence threshold     =      1.0E-08
     mixing beta               =       0.7000
     number of iterations used =            8  plain     mixing
     Exchange-correlation      = BLYP ( 1  3  1  3 0 0)
     nstep                     =           50

     celldm(1)=  20.000000  celldm(2)=   0.000000  celldm(3)=   0.000000
     celldm(4)=   0.000000  celldm(5)=   0.000000  celldm(6)=   0.000000

     crystal axes: (cart. coord. in units of alat)
               a(1) = (   1.000000   0.000000   0.000000 )
               a(2) = (   0.000000   1.000000   0.000000 )
               a(3) = (   0.000000   0.000000   1.000000 )

     reciprocal axes: (cart. coord. in units 2 pi/alat)
               b(1) = (  1.000000  0.000000  0.000000 )
               b(2) = (  0.000000  1.000000  0.000000 )
               b(3) = (  0.000000  0.000000  1.000000 )

     PseudoPot. # 1 for Au read from file:
     ./Au.blyp-d-hgh.UPF
     MD5 check sum: c10d8bae01f806c36a1643a1c69a8479
     Pseudo is Norm-conserving, Zval = 11.0
     Generated in analytical, separable form
     Using radial grid of 1279 points,  6 beta functions with:
                l(1) =   0
                l(2) =   0
                l(3) =   1
                l(4) =   1
                l(5) =   2
                l(6) =   2

     atomic species   valence    mass     pseudopotential
        Au            11.00    28.08600     Au( 1.00)

     No symmetry found

   Cartesian axes

     site n.     atom                  positions (alat units)
         1           Au  tau(   1) = (  -0.0885760   0.0423849  -0.0132642  )
         2           Au  tau(   2) = (   0.0207289   0.1297249   0.2058402  )
         3           Au  tau(   3) = (   0.1480606   0.0372275   0.0072235  )
         4           Au  tau(   4) = (   0.2413059   0.2112174   0.2863823  )
         5           Au  tau(   5) = (   0.3177727   0.0496405   0.1347522  )

     number of k points=     1  Marzari-Vanderbilt smearing, width (Ry)=  0.0250
                       cart. coord. in units 2pi/alat
        k(    1) = (   0.0000000   0.0000000   0.0000000), wk =   2.0000000

     Initial potential from superposition of free atoms
     Check: negative starting charge=   -0.006544

     starting charge   54.99940, renormalised to   55.00000

     negative rho (up, down):  6.544E-03 0.000E+00
     Starting wfc are   45 randomized atomic wfcs

     Self-consistent Calculation

     iteration #  1     ecut=    30.00 Ry     beta=0.70
     Davidson diagonalization with overlap
     ethr =  1.00E-02,  avg # of iterations =  6.0

     Threshold (ethr) on eigenvalues was too large:
     Diagonalizing with lowered threshold

     Davidson diagonalization with overlap
     ethr =  6.69E-04,  avg # of iterations =  1.0

     negative rho (up, down):  7.978E-04 0.000E+00

     total energy              =    -329.16481517 Ry
     Harris-Foulkes estimate   =    -329.42564722 Ry
     estimated scf accuracy    <       0.41217870 Ry

[...]

     End of self-consistent calculation

          k = 0.0000 0.0000 0.0000 ( 22119 PWs)   bands (ev):

    -9.4263  -8.5991  -8.5145  -8.0999  -7.7423  -7.5946  -7.1367  -6.8598
    -6.6715  -6.5848  -6.1801  -5.9994  -5.9127  -5.6967  -5.6588  -5.5580
    -5.4535  -5.3619  -5.2994  -5.1572  -5.0915  -5.0388  -4.8984  -4.7748
    -4.5114  -4.3292  -4.0279  -3.7730  -2.4523  -1.6914  -0.5593  -0.2656
     0.4550   0.7503

     the Fermi energy is    -3.7491 ev

!    total energy              =    -329.34961862 Ry
     Harris-Foulkes estimate   =    -329.34961862 Ry
     estimated scf accuracy    <          3.4E-09 Ry

     The total energy is the sum of the following terms:

     one-electron contribution =    -647.66116357 Ry
     hartree contribution      =     344.93123178 Ry
     xc contribution           =     -51.62986744 Ry
     ewald contribution        =      25.00589787 Ry
     smearing contrib. (-TS)   =       0.00428274 Ry

     convergence has been achieved in  13 iterations

     Forces acting on atoms (Ry/au):

     atom    1 type  1   force =    -0.07318618    0.00061250   -0.00804608
     atom    2 type  1   force =    -0.03398687    0.00174795    0.00219940
     atom    3 type  1   force =    -0.18495117   -0.02651281   -0.19942735
     atom    4 type  1   force =    -0.01088955    0.06392378    0.06614450
     atom    5 type  1   force =     0.30301376   -0.03977142    0.13912952

     Total force =     0.450113     Total SCF correction =     0.000306

     BFGS Geometry Optimization

     number of scf cycles    =   1
     number of bfgs steps    =   0

     energy   new            =    -329.3496186246 Ry

     new trust radius        =       0.3357917946 bohr
     new conv_thr            =       0.0000000100 Ry

ATOMIC_POSITIONS (bohr)
Au      -1.844707177   0.848311498  -0.273331077
Au       0.380591134   2.596245952   4.119003401
Au       2.776259833   0.718036194  -0.054956350
Au       4.815228449   4.288271778   5.793790503
Au       6.658467760   0.953037578   2.834173524

     Writing output data file pwscf.save
     Check: negative starting charge=   -0.006544
     NEW-OLD atomic charge density approx. for the potential
     Check: negative starting charge=   -0.006436

[...]

     energy   old            =    -329.3496186246 Ry
     energy   new            =    -329.4486272608 Ry

     CASE: energy  _new < energy  _old

[...]

     WARNING: bfgs curvature condition failed, Theta= 0.395
     new trust radius        =       0.1006074845 bohr
     new conv_thr            =       0.0000000004 Ry

[...]

     WARNING: bfgs curvature condition failed, Theta= 0.988
     new trust radius        =       0.0379763518 bohr
     new conv_thr            =       0.0000000005 Ry

[...]

     Threshold (ethr) on eigenvalues was too large:
     Diagonalizing with lowered threshold

     Davidson diagonalization with overlap
     ethr =  7.87E-08,  avg # of iterations =  1.0

[...]

     CASE: energy  _new < energy  _old

[...]

     Self-consistent Calculation

[...]

     total energy              =    -329.49321488 Ry
     Harris-Foulkes estimate   =    -329.49321492 Ry
     estimated scf accuracy    <          5.1E-10 Ry

     iteration # 11     ecut=    30.00 Ry     beta=0.70
     Davidson diagonalization with overlap
     ethr =  9.24E-13,  avg # of iterations =  2.0

     End of self-consistent calculation

          k = 0.0000 0.0000 0.0000 ( 22119 PWs)   bands (ev):

    -8.5222  -7.7913  -7.6267  -7.2196  -6.8421  -6.8249  -6.6047  -6.4784
    -6.2845  -6.0884  -5.9545  -5.7612  -5.7293  -5.6698  -5.4539  -5.3443
    -5.2983  -5.2476  -5.1892  -5.1865  -5.1561  -5.1176  -4.9824  -4.9324
    -4.8607  -4.6987  -4.4992  -3.7395  -2.3772  -2.2453  -0.5148  -0.1848
     0.3843   0.7292

     the Fermi energy is    -3.7010 ev

!    total energy              =    -329.49321488 Ry
     Harris-Foulkes estimate   =    -329.49321488 Ry
     estimated scf accuracy    <          4.5E-11 Ry

     The total energy is the sum of the following terms:

     one-electron contribution =    -603.25999105 Ry
     hartree contribution      =     323.07150849 Ry
     xc contribution           =     -51.39693567 Ry
     ewald contribution        =       2.09793755 Ry
     smearing contrib. (-TS)   =      -0.00573420 Ry

     convergence has been achieved in  11 iterations

     Forces acting on atoms (Ry/au):

     atom    1 type  1   force =    -0.00318180    0.00044765   -0.00245633
     atom    2 type  1   force =    -0.00148412    0.00160929    0.00002954
     atom    3 type  1   force =     0.00532484   -0.00049606    0.00398307
     atom    4 type  1   force =     0.00060735   -0.00018060    0.00053705
     atom    5 type  1   force =    -0.00126626   -0.00138028   -0.00209334

     Total force =     0.008614     Total SCF correction =     0.000032

     number of scf cycles    =  50
     number of bfgs steps    =  49

     energy   old            =    -329.4932448825 Ry
     energy   new            =    -329.4932148800 Ry

     CASE: energy  _new > energy  _old

     new trust radius        =       0.0322558447 bohr
     new conv_thr            =            1.0E-10 Ry

ATOMIC_POSITIONS (bohr)
Au      -1.964384552   1.046579750  -0.174122163
Au       1.087823751   2.837845978   3.417021037
Au       2.916444974  -0.499958293  -0.527707360
Au       4.501531684   4.617003790   6.681112461
Au       6.244424144   1.402431774   3.022376026

     Writing output data file pwscf.save
     Check: negative starting charge=   -0.006132
     NEW-OLD atomic charge density approx. for the potential
     Check: negative starting charge=   -0.006146

     negative rho (up, down):  5.646E-04 0.000E+00

     Writing output data file pwscf.save

     General routines

     Parallel routines

   This run was terminated on:   2: 8:58   4Aug2017

   JOB DONE.