     Program PWSCF v.6.0 (svn rev. 13079) starts on  3Aug2017 at 23:23:10

     Current dimensions of program PWSCF are:
     Max number of different atomic species (ntypx) = 10
     Max number of k-points (npk) =  40000
     Max angular momentum in pseudopotentials (lmaxx) =  3
     Message from routine iosys:
     pot_extrapolation='second-order' not available, using 'atomic'
     Message from routine iosys:
     wfc_extrapolation='second-order' not available, using 'atomic'

     Subspace diagonalization in iterative solution of the eigenvalue problem:
     a serial algorithm will be used

     bravais-lattice index     =            1
     lattice parameter (alat)  =      20.0000  a.u.
     unit-cell volume          =    8000.0000 (a.u.)^3
     number of atoms/cell      =            5
     number of atomic types    =            1
     number of electrons       =        55.00
     number of Kohn-Sham states=           34
     kinetic-energy cutoff     =      30.0000  Ry
     charge density cutoff     =     120.0000  Ry
     convergence threshold     =      1.0E-08
     mixing beta               =       0.7000
     number of iterations used =            8  plain     mixing
     Exchange-correlation      = BLYP ( 1  3  1  3 0 0)
     nstep                     =           50

     celldm(1)=  20.000000  celldm(2)=   0.000000  celldm(3)=   0.000000
     celldm(4)=   0.000000  celldm(5)=   0.000000  celldm(6)=   0.000000

     crystal axes: (cart. coord. in units of alat)
               a(1) = (   1.000000   0.000000   0.000000 )
               a(2) = (   0.000000   1.000000   0.000000 )
               a(3) = (   0.000000   0.000000   1.000000 )

     reciprocal axes: (cart. coord. in units 2 pi/alat)
               b(1) = (  1.000000  0.000000  0.000000 )
               b(2) = (  0.000000  1.000000  0.000000 )
               b(3) = (  0.000000  0.000000  1.000000 )

     PseudoPot. # 1 for Au read from file:
     ./Au.blyp-d-hgh.UPF
     MD5 check sum: c10d8bae01f806c36a1643a1c69a8479
     Pseudo is Norm-conserving, Zval = 11.0
     Generated in analytical, separable form
     Using radial grid of 1279 points,  6 beta functions with:
                l(1) =   0
                l(2) =   0
                l(3) =   1
                l(4) =   1
                l(5) =   2
                l(6) =   2

     atomic species   valence    mass     pseudopotential
        Au            11.00    28.08600     Au( 1.00)

     No symmetry found

   Cartesian axes

     site n.     atom                  positions (alat units)
         1           Au  tau(   1) = (  -0.1150762   0.1343373  -0.0218940  )
         2           Au  tau(   2) = (  -0.0154699   0.1720734   0.2268996  )
         3           Au  tau(   3) = (   0.1517587   0.0820712   0.0062589  )
         4           Au  tau(   4) = (   0.2175882   0.1923458   0.2731746  )
         5           Au  tau(   5) = (   0.3742323   0.0637212   0.1342902  )

     number of k points=     1  Marzari-Vanderbilt smearing, width (Ry)=  0.0250
                       cart. coord. in units 2pi/alat
        k(    1) = (   0.0000000   0.0000000   0.0000000), wk =   2.0000000

     Initial potential from superposition of free atoms
     Check: negative starting charge=   -0.006450

     starting charge   54.99940, renormalised to   55.00000

     negative rho (up, down):  6.450E-03 0.000E+00
     Starting wfc are   45 randomized atomic wfcs

     Self-consistent Calculation

     iteration #  1     ecut=    30.00 Ry     beta=0.70
     Davidson diagonalization with overlap
     ethr =  1.00E-02,  avg # of iterations =  3.0

     Threshold (ethr) on eigenvalues was too large:
     Diagonalizing with lowered threshold

     Davidson diagonalization with overlap
     ethr =  4.99E-04,  avg # of iterations =  3.0

     negative rho (up, down):  8.532E-04 0.000E+00

     total energy              =    -329.30796390 Ry
     Harris-Foulkes estimate   =    -329.51416877 Ry
     estimated scf accuracy    <       0.32847119 Ry

[...]

     End of self-consistent calculation

          k = 0.0000 0.0000 0.0000 ( 22119 PWs)   bands (ev):

    -8.1567  -7.7632  -7.5411  -7.2408  -6.9487  -6.7857  -6.5861  -6.3521
    -6.2808  -5.9936  -5.8416  -5.6666  -5.5607  -5.5379  -5.4666  -5.4152
    -5.3112  -5.2468  -5.2285  -5.1578  -5.1387  -5.0767  -5.0347  -4.9050
    -4.7744  -4.6932  -4.2982  -3.9005  -2.7344  -2.0536  -0.4857  -0.2721
     0.4129   0.7374

     the Fermi energy is    -3.8980 ev

!    total energy              =    -329.45632530 Ry
     Harris-Foulkes estimate   =    -329.45632529 Ry
     estimated scf accuracy    <          1.3E-09 Ry

     The total energy is the sum of the following terms:

     one-electron contribution =    -597.91806982 Ry
     hartree contribution      =     320.48813886 Ry
     xc contribution           =     -51.39497330 Ry
     ewald contribution        =      -0.63416731 Ry
     smearing contrib. (-TS)   =       0.00274628 Ry

     convergence has been achieved in  13 iterations

     Forces acting on atoms (Ry/au):

     atom    1 type  1   force =     0.03803998   -0.00293564    0.01704365
     atom    2 type  1   force =    -0.06468420   -0.01314001   -0.04473533
     atom    3 type  1   force =    -0.03163715    0.01420357    0.02398767
     atom    4 type  1   force =     0.04931721    0.01525356    0.02276198
     atom    5 type  1   force =     0.00896416   -0.01338148   -0.01905798

     Total force =     0.116995     Total SCF correction =     0.000133

     BFGS Geometry Optimization

     number of scf cycles    =   1
     number of bfgs steps    =   0

     energy   new            =    -329.4563252990 Ry

     new trust radius        =       0.0797367845 bohr
     new conv_thr            =       0.0000000100 Ry

ATOMIC_POSITIONS (bohr)
Au      -2.263484016   2.683809359  -0.420836347
Au      -0.374082200   3.428327994   4.493256675
Au       3.003536852   1.655626568   0.149165671
Au       4.401081208   3.862168558   5.486252979
Au       7.493611156   1.261042521   2.666747022

     Writing output data file pwscf.save
     Check: negative starting charge=   -0.006450
     NEW-OLD atomic charge density approx. for the potential
     Check: negative starting charge=   -0.006409

[...]

     energy   old            =    -329.4563252990 Ry
     energy   new            =    -329.4676135537 Ry

     CASE: energy  _new < energy  _old

[...]

     WARNING: bfgs curvature condition failed, Theta= 0.922
     new trust radius        =       0.0332617708 bohr
     new conv_thr            =       0.0000000010 Ry

[...]

     CASE: energy  _new > energy  _old

[...]

     WARNING: info= 13 for Hessian
     new trust radius        =       0.0147284585 bohr
     new conv_thr            =            1.0E-10 Ry

[...]

     WARNING: info= 14 for Hessian

     WARNING: bfgs curvature condition failed, Theta= 0.856
     new trust radius        =       0.0264461081 bohr
     new conv_thr            =            1.0E-10 Ry

[...]

     CASE: energy  _new > energy  _old

     new trust radius        =       0.0182476682 bohr
     new conv_thr            =            1.0E-10 Ry

[...]

     Self-consistent Calculation

[...]

     Threshold (ethr) on eigenvalues was too large:
     Diagonalizing with lowered threshold

     Davidson diagonalization with overlap
     ethr =  3.17E-08,  avg # of iterations =  1.0

[...]

     total energy              =    -329.49203911 Ry
     Harris-Foulkes estimate   =    -329.49203913 Ry
     estimated scf accuracy    <          4.1E-10 Ry

     iteration #  9     ecut=    30.00 Ry     beta=0.70
     Davidson diagonalization with overlap
     ethr =  7.39E-13,  avg # of iterations =  2.0

     End of self-consistent calculation

          k = 0.0000 0.0000 0.0000 ( 22119 PWs)   bands (ev):

    -8.5078  -7.7837  -7.6630  -7.2370  -6.8732  -6.8124  -6.5759  -6.5008
    -6.3054  -6.0769  -5.9472  -5.7612  -5.7201  -5.6816  -5.4662  -5.3602
    -5.3154  -5.2483  -5.1990  -5.1892  -5.1668  -5.1213  -5.0122  -4.9317
    -4.8724  -4.6923  -4.5055  -3.7752  -2.4844  -2.1943  -0.5448  -0.1926
     0.5015   0.8214

     the Fermi energy is    -3.7400 ev

!    total energy              =    -329.49203911 Ry
     Harris-Foulkes estimate   =    -329.49203911 Ry
     estimated scf accuracy    <          4.1E-11 Ry

     The total energy is the sum of the following terms:

     one-electron contribution =    -607.36941321 Ry
     hartree contribution      =     325.11247091 Ry
     xc contribution           =     -51.39683588 Ry
     ewald contribution        =       4.16665171 Ry
     smearing contrib. (-TS)   =      -0.00491265 Ry

     convergence has been achieved in   9 iterations

     Forces acting on atoms (Ry/au):

     atom    1 type  1   force =     0.00196018    0.00002150    0.00081619
     atom    2 type  1   force =    -0.00197731    0.00294153    0.00124902
     atom    3 type  1   force =     0.00410078   -0.00333808   -0.00051410
     atom    4 type  1   force =    -0.00068642    0.00012514   -0.00127151
     atom    5 type  1   force =    -0.00339723    0.00024992   -0.00027960

     Total force =     0.007787     Total SCF correction =     0.000025

     number of scf cycles    =  50
     number of bfgs steps    =  47

     energy   old            =    -329.4920317156 Ry
     energy   new            =    -329.4920391149 Ry

     CASE: energy  _new < energy  _old

     WARNING: info= 14 for Hessian
     new trust radius        =       0.0105240583 bohr
     new conv_thr            =            1.0E-10 Ry

ATOMIC_POSITIONS (bohr)
Au      -2.008180125   2.512072850  -0.612140780
Au      -0.485256623   4.092471623   4.093172514
Au       2.804631188   1.708395868   0.731413364
Au       4.415626723   3.526357840   5.713346290
Au       7.533841838   1.051676820   2.448794612

     Writing output data file pwscf.save
     Check: negative starting charge=   -0.006392
     NEW-OLD atomic charge density approx. for the potential
     Check: negative starting charge=   -0.006389

     negative rho (up, down):  5.683E-06 0.000E+00

     Writing output data file pwscf.save

     General routines

     Parallel routines

   This run was terminated on:  23:25:21   3Aug2017

   JOB DONE.