     Program PWSCF v.6.0 (svn rev. 13079) starts on  4Aug2017 at  2:12:59

     Current dimensions of program PWSCF are:
     Max number of different atomic species (ntypx) = 10
     Max number of k-points (npk) =  40000
     Max angular momentum in pseudopotentials (lmaxx) =  3
     Message from routine iosys:
     pot_extrapolation='second-order' not available, using 'atomic'
     Message from routine iosys:
     wfc_extrapolation='second-order' not available, using 'atomic'

     Subspace diagonalization in iterative solution of the eigenvalue problem:
     a serial algorithm will be used

     bravais-lattice index     =            1
     lattice parameter (alat)  =      20.0000  a.u.
     unit-cell volume          =    8000.0000 (a.u.)^3
     number of atoms/cell      =            5
     number of atomic types    =            1
     number of electrons       =        55.00
     number of Kohn-Sham states=           34
     kinetic-energy cutoff     =      30.0000  Ry
     charge density cutoff     =     120.0000  Ry
     convergence threshold     =      1.0E-08
     mixing beta               =       0.7000
     number of iterations used =            8  plain     mixing
     Exchange-correlation      = BLYP ( 1  3  1  3 0 0)
     nstep                     =           50

     celldm(1)=  20.000000  celldm(2)=   0.000000  celldm(3)=   0.000000
     celldm(4)=   0.000000  celldm(5)=   0.000000  celldm(6)=   0.000000

     crystal axes: (cart. coord. in units of alat)
               a(1) = (   1.000000   0.000000   0.000000 )
               a(2) = (   0.000000   1.000000   0.000000 )
               a(3) = (   0.000000   0.000000   1.000000 )

     reciprocal axes: (cart. coord. in units 2 pi/alat)
               b(1) = (  1.000000  0.000000  0.000000 )
               b(2) = (  0.000000  1.000000  0.000000 )
               b(3) = (  0.000000  0.000000  1.000000 )

     PseudoPot. # 1 for Au read from file:
     ./Au.blyp-d-hgh.UPF
     MD5 check sum: c10d8bae01f806c36a1643a1c69a8479
     Pseudo is Norm-conserving, Zval = 11.0
     Generated in analytical, separable form
     Using radial grid of 1279 points,  6 beta functions with:
                l(1) =   0
                l(2) =   0
                l(3) =   1
                l(4) =   1
                l(5) =   2
                l(6) =   2

     atomic species   valence    mass     pseudopotential
        Au            11.00    28.08600     Au( 1.00)

     No symmetry found

   Cartesian axes

     site n.     atom                  positions (alat units)
         1           Au  tau(   1) = (  -0.0941222   0.2174741  -0.0313879  )
         2           Au  tau(   2) = (  -0.0106375   0.1167787   0.2076755  )
         3           Au  tau(   3) = (   0.1409607   0.1489180   0.0113248  )
         4           Au  tau(   4) = (   0.2257317   0.2175188   0.2781906  )
         5           Au  tau(   5) = (   0.3348405   0.0500812   0.1287324  )

     number of k points=     1  Marzari-Vanderbilt smearing, width (Ry)=  0.0250
                       cart. coord. in units 2pi/alat
        k(    1) = (   0.0000000   0.0000000   0.0000000), wk =   2.0000000

     Initial potential from superposition of free atoms
     Check: negative starting charge=   -0.006103

     starting charge   54.99940, renormalised to   55.00000

     negative rho (up, down):  6.104E-03 0.000E+00
     Starting wfc are   45 randomized atomic wfcs

     Self-consistent Calculation

     iteration #  1     ecut=    30.00 Ry     beta=0.70
     Davidson diagonalization with overlap
     ethr =  1.00E-02,  avg # of iterations =  3.0

     Threshold (ethr) on eigenvalues was too large:
     Diagonalizing with lowered threshold

     Davidson diagonalization with overlap
     ethr =  3.92E-04,  avg # of iterations =  8.0

     negative rho (up, down):  7.724E-04 0.000E+00

     total energy              =    -329.35031816 Ry
     Harris-Foulkes estimate   =    -329.51509010 Ry
     estimated scf accuracy    <       0.27414591 Ry

[...]

     End of self-consistent calculation

          k = 0.0000 0.0000 0.0000 ( 22119 PWs)   bands (ev):

    -8.5292  -7.9148  -7.7497  -7.2760  -6.8836  -6.8529  -6.7132  -6.4870
    -6.2939  -5.9669  -5.8940  -5.7997  -5.7698  -5.6108  -5.5571  -5.4456
    -5.2618  -5.2270  -5.1792  -5.0858  -5.0716  -5.0094  -5.0078  -4.8918
    -4.8451  -4.4857  -4.3995  -3.4878  -2.6667  -2.2464  -0.2191  -0.0194
     0.2511   0.5450

     the Fermi energy is    -3.4424 ev

!    total energy              =    -329.45586771 Ry
     Harris-Foulkes estimate   =    -329.45586775 Ry
     estimated scf accuracy    <          4.9E-09 Ry

     The total energy is the sum of the following terms:

     one-electron contribution =    -617.35013019 Ry
     hartree contribution      =     330.15670592 Ry
     xc contribution           =     -51.42352147 Ry
     ewald contribution        =       9.16864381 Ry
     smearing contrib. (-TS)   =      -0.00756578 Ry

     convergence has been achieved in  12 iterations

     Forces acting on atoms (Ry/au):

     atom    1 type  1   force =    -0.00926097   -0.00340562    0.00576333
     atom    2 type  1   force =    -0.01612859    0.01432902    0.01637043
     atom    3 type  1   force =     0.01127751    0.00499050   -0.02684960
     atom    4 type  1   force =    -0.01703744   -0.00050064    0.01221663
     atom    5 type  1   force =     0.03114950   -0.01541327   -0.00750080

     Total force =     0.058659     Total SCF correction =     0.000308

     BFGS Geometry Optimization

     number of scf cycles    =   1
     number of bfgs steps    =   0

     energy   new            =    -329.4558677096 Ry

     new trust radius        =       0.0355544951 bohr
     new conv_thr            =       0.0000000100 Ry

ATOMIC_POSITIONS (bohr)
Au      -1.891704968   4.346075380  -0.621994668
Au      -0.228879594   2.349902023   4.169880434
Au       2.830492505   2.983350500   0.199646397
Au       4.497596557   4.349875364   5.576029634
Au       6.727959501   0.986210734   2.567147203

     Writing output data file pwscf.save
     Check: negative starting charge=   -0.006103
     NEW-OLD atomic charge density approx. for the potential
     Check: negative starting charge=   -0.006094

[...]

     energy   old            =    -329.4558677096 Ry
     energy   new            =    -329.4588649781 Ry

     CASE: energy  _new < energy  _old

[...]

     WARNING: bfgs curvature condition failed, Theta= 0.982
     new trust radius        =       0.0666358325 bohr
     new conv_thr            =       0.0000000013 Ry

[...]

     WARNING: info=  5 for Hessian
     new trust radius        =       0.1394929873 bohr
     new conv_thr            =       0.0000000014 Ry

[...]

     WARNING: info=  5 for Hessian
     new trust radius        =       0.0281577204 bohr
     new conv_thr            =       0.0000000001 Ry

[...]

     CASE: energy  _new > energy  _old

[...]

     WARNING: info= 13 for Hessian
     uphill step: resetting bfgs history

[...]

     WARNING: bfgs curvature condition failed, Theta= 0.978
     new trust radius        =       0.0166065546 bohr
     new conv_thr            =       0.0000000006 Ry

[...]

     Self-consistent Calculation

[...]

     Threshold (ethr) on eigenvalues was too large:
     Diagonalizing with lowered threshold

     Davidson diagonalization with overlap
     ethr =  9.60E-09,  avg # of iterations =  2.0

[...]

     total energy              =    -329.49204380 Ry
     Harris-Foulkes estimate   =    -329.49204377 Ry
     estimated scf accuracy    <          7.9E-10 Ry

     iteration #  8     ecut=    30.00 Ry     beta=0.70
     Davidson diagonalization with overlap
     ethr =  1.44E-12,  avg # of iterations =  2.0

     End of self-consistent calculation

          k = 0.0000 0.0000 0.0000 ( 22119 PWs)   bands (ev):

    -8.5040  -7.7859  -7.6584  -7.2439  -6.8671  -6.8166  -6.6122  -6.4883
    -6.3152  -6.0738  -5.9571  -5.7699  -5.7293  -5.6751  -5.4646  -5.3632
    -5.3143  -5.2467  -5.1992  -5.1910  -5.1699  -5.1252  -5.0041  -4.9232
    -4.8545  -4.7183  -4.4869  -3.7754  -2.4741  -2.1906  -0.5574  -0.2260
     0.4885   0.8125

     the Fermi energy is    -3.7417 ev

!    total energy              =    -329.49204378 Ry
     Harris-Foulkes estimate   =    -329.49204380 Ry
     estimated scf accuracy    <          7.2E-11 Ry

     The total energy is the sum of the following terms:

     one-electron contribution =    -608.26985156 Ry
     hartree contribution      =     325.56260802 Ry
     xc contribution           =     -51.40017059 Ry
     ewald contribution        =       4.61996944 Ry
     smearing contrib. (-TS)   =      -0.00459909 Ry

     convergence has been achieved in   8 iterations

     Forces acting on atoms (Ry/au):

     atom    1 type  1   force =     0.00073758   -0.00093136   -0.00108306
     atom    2 type  1   force =     0.00042340    0.00019396    0.00052645
     atom    3 type  1   force =     0.00028319    0.00034914   -0.00027419
     atom    4 type  1   force =    -0.00116178    0.00040147    0.00060461
     atom    5 type  1   force =    -0.00028238   -0.00001321    0.00022619

     Total force =     0.002316     Total SCF correction =     0.000034

     number of scf cycles    =  50
     number of bfgs steps    =  48

     energy   old            =    -329.4920317712 Ry
     energy   new            =    -329.4920437846 Ry

     CASE: energy  _new < energy  _old

     new trust radius        =       0.0066213268 bohr
     new conv_thr            =            1.0E-10 Ry

ATOMIC_POSITIONS (bohr)
Au      -1.919802159   3.891130148  -0.735528877
Au      -0.649836579   3.992774207   4.267930951
Au       2.809505786   2.546582980   0.473915226
Au       4.195479006   2.980747790   5.794164634
Au       7.500117946   1.604178876   2.090227066

     Writing output data file pwscf.save
     Check: negative starting charge=   -0.006414
     NEW-OLD atomic charge density approx. for the potential
     Check: negative starting charge=   -0.006417

     negative rho (up, down):  3.771E-07 0.000E+00

     Writing output data file pwscf.save

     General routines

     Parallel routines

   This run was terminated on:   2:15: 9   4Aug2017

   JOB DONE.