     Program PWSCF v.6.0 (svn rev. 13079) starts on  4Aug2017 at  6: 9:18

     Current dimensions of program PWSCF are:
     Max number of different atomic species (ntypx) = 10
     Max number of k-points (npk) =  40000
     Max angular momentum in pseudopotentials (lmaxx) =  3
     Message from routine iosys:
     pot_extrapolation='second-order' not available, using 'atomic'
     Message from routine iosys:
     wfc_extrapolation='second-order' not available, using 'atomic'

     Subspace diagonalization in iterative solution of the eigenvalue problem:
     a serial algorithm will be used

     bravais-lattice index     =            1
     lattice parameter (alat)  =      20.0000  a.u.
     unit-cell volume          =    8000.0000 (a.u.)^3
     number of atoms/cell      =            5
     number of atomic types    =            1
     number of electrons       =        55.00
     number of Kohn-Sham states=           34
     kinetic-energy cutoff     =      30.0000  Ry
     charge density cutoff     =     120.0000  Ry
     convergence threshold     =      1.0E-08
     mixing beta               =       0.7000
     number of iterations used =            8  plain     mixing
     Exchange-correlation      = BLYP ( 1  3  1  3 0 0)
     nstep                     =           50

     celldm(1)=  20.000000  celldm(2)=   0.000000  celldm(3)=   0.000000
     celldm(4)=   0.000000  celldm(5)=   0.000000  celldm(6)=   0.000000

     crystal axes: (cart. coord. in units of alat)
               a(1) = (   1.000000   0.000000   0.000000 )
               a(2) = (   0.000000   1.000000   0.000000 )
               a(3) = (   0.000000   0.000000   1.000000 )

     reciprocal axes: (cart. coord. in units 2 pi/alat)
               b(1) = (  1.000000  0.000000  0.000000 )
               b(2) = (  0.000000  1.000000  0.000000 )
               b(3) = (  0.000000  0.000000  1.000000 )

     PseudoPot. # 1 for Au read from file:
     ./Au.blyp-d-hgh.UPF
     MD5 check sum: c10d8bae01f806c36a1643a1c69a8479
     Pseudo is Norm-conserving, Zval = 11.0
     Generated in analytical, separable form
     Using radial grid of 1279 points,  6 beta functions with:
                l(1) =   0
                l(2) =   0
                l(3) =   1
                l(4) =   1
                l(5) =   2
                l(6) =   2

     atomic species   valence    mass     pseudopotential
        Au            11.00    28.08600     Au( 1.00)

     No symmetry found

   Cartesian axes

     site n.     atom                  positions (alat units)
         1           Au  tau(   1) = (  -0.0506903   0.0185733   0.0185794  )
         2           Au  tau(   2) = (  -0.0344488   0.1977078   0.2097190  )
         3           Au  tau(   3) = (   0.1357996   0.1680353   0.0369389  )
         4           Au  tau(   4) = (   0.2192118   0.2480473   0.2380704  )
         5           Au  tau(   5) = (   0.2483061  -0.0034507   0.1918440  )

     number of k points=     1  Marzari-Vanderbilt smearing, width (Ry)=  0.0250
                       cart. coord. in units 2pi/alat
        k(    1) = (   0.0000000   0.0000000   0.0000000), wk =   2.0000000

     Initial potential from superposition of free atoms
     Check: negative starting charge=   -0.006314

     starting charge   54.99940, renormalised to   55.00000

     negative rho (up, down):  6.314E-03 0.000E+00
     Starting wfc are   45 randomized atomic wfcs

     Self-consistent Calculation

     iteration #  1     ecut=    30.00 Ry     beta=0.70
     Davidson diagonalization with overlap
     ethr =  1.00E-02,  avg # of iterations =  4.0

     Threshold (ethr) on eigenvalues was too large:
     Diagonalizing with lowered threshold

     Davidson diagonalization with overlap
     ethr =  3.75E-04,  avg # of iterations =  3.0

     negative rho (up, down):  7.785E-04 0.000E+00

     total energy              =    -329.27390684 Ry
     Harris-Foulkes estimate   =    -329.42841800 Ry
     estimated scf accuracy    <       0.25695238 Ry

[...]

     End of self-consistent calculation

          k = 0.0000 0.0000 0.0000 ( 22119 PWs)   bands (ev):

    -9.1131  -8.3706  -8.2058  -8.0223  -7.3517  -7.0767  -6.8521  -6.8171
    -6.5746  -6.2793  -5.8868  -5.7750  -5.6592  -5.5467  -5.4788  -5.4237
    -5.2723  -5.1588  -5.1273  -5.0943  -5.0349  -4.9248  -4.8287  -4.7339
    -4.6487  -4.3368  -4.0282  -3.5791  -2.8037  -1.9588  -0.3395   0.0889
     0.3276   0.4694

     the Fermi energy is    -3.5824 ev

!    total energy              =    -329.37317573 Ry
     Harris-Foulkes estimate   =    -329.37317576 Ry
     estimated scf accuracy    <          5.2E-09 Ry

     The total energy is the sum of the following terms:

     one-electron contribution =    -657.41179559 Ry
     hartree contribution      =     350.09581005 Ry
     xc contribution           =     -51.55470987 Ry
     ewald contribution        =      29.49445589 Ry
     smearing contrib. (-TS)   =       0.00306379 Ry

     convergence has been achieved in  13 iterations

     Forces acting on atoms (Ry/au):

     atom    1 type  1   force =    -0.05918133   -0.03588647   -0.01365912
     atom    2 type  1   force =    -0.05653182    0.00312474    0.03037801
     atom    3 type  1   force =     0.02993073   -0.01409445   -0.14198223
     atom    4 type  1   force =     0.06802213    0.05738995    0.11708512
     atom    5 type  1   force =     0.01776030   -0.01053377    0.00817822

     Total force =     0.229089     Total SCF correction =     0.000289

     BFGS Geometry Optimization

     number of scf cycles    =   1
     number of bfgs steps    =   0

     energy   new            =    -329.3731757325 Ry

     new trust radius        =       0.1470698519 bohr
     new conv_thr            =       0.0000000100 Ry

ATOMIC_POSITIONS (bohr)
Au      -1.072986332   0.335580532   0.357928882
Au      -0.745506820   3.957281737   4.224758012
Au       2.745922726   3.346612550   0.596796768
Au       4.452258127   5.018335948   4.878494120
Au       4.983881298  -0.079547767   3.845059217

     Writing output data file pwscf.save
     Check: negative starting charge=   -0.006314
     NEW-OLD atomic charge density approx. for the potential
     Check: negative starting charge=   -0.006153

[...]

     energy   old            =    -329.3731757325 Ry
     energy   new            =    -329.4084722629 Ry

     CASE: energy  _new < energy  _old

[...]

     WARNING: bfgs curvature condition failed, Theta= 0.986
     new trust radius        =       0.1562478989 bohr
     new conv_thr            =       0.0000000023 Ry

[...]

     CASE: energy  _new > energy  _old

[...]

     WARNING: info=  4 for Hessian
     uphill step: resetting bfgs history

[...]

     iteration #  1     ecut=    30.00 Ry     beta=0.70
     Davidson diagonalization with overlap
     c_bands:  1 eigenvalues not converged
     ethr =  1.00E-06,  avg # of iterations = 20.0

[...]

     WARNING: bfgs curvature condition failed, Theta= 0.765
     new trust radius        =       0.4178357594 bohr
     new conv_thr            =       0.0000000035 Ry

[...]

     CASE: energy  _new < energy  _old

[...]

     new trust radius        =       0.0000178286 bohr

     trust_radius < trust_radius_min

     resetting bfgs history

     new conv_thr            =       0.0000000024 Ry

[...]

     Threshold (ethr) on eigenvalues was too large:
     Diagonalizing with lowered threshold

     Davidson diagonalization with overlap
     ethr =  5.09E-09,  avg # of iterations =  2.0

[...]

     new trust radius        =       0.0000001039 bohr

     trust_radius < trust_radius_min

     resetting bfgs history

     new conv_thr            =       0.0000000024 Ry

[...]

     Self-consistent Calculation

[...]

     total energy              =    -329.47817339 Ry
     Harris-Foulkes estimate   =    -329.47817354 Ry
     estimated scf accuracy    <       0.00000001 Ry

     iteration #  8     ecut=    30.00 Ry     beta=0.70
     Davidson diagonalization with overlap
     ethr =  2.04E-11,  avg # of iterations =  2.0

     End of self-consistent calculation

          k = 0.0000 0.0000 0.0000 ( 22119 PWs)   bands (ev):

    -8.1793  -7.5517  -7.4978  -7.1748  -6.9928  -6.6732  -6.6138  -6.3365
    -6.2555  -6.0396  -5.8019  -5.7309  -5.6315  -5.6135  -5.4688  -5.3923
    -5.3360  -5.2539  -5.2146  -5.1881  -5.1401  -5.1078  -5.0971  -4.9894
    -4.8739  -4.6264  -4.4856  -3.7436  -2.6994  -2.1609  -0.4619  -0.1569
     0.3709   0.5913

     the Fermi energy is    -3.7081 ev

!    total energy              =    -329.47817337 Ry
     Harris-Foulkes estimate   =    -329.47817339 Ry
     estimated scf accuracy    <          2.2E-09 Ry

     The total energy is the sum of the following terms:

     one-electron contribution =    -594.86224750 Ry
     hartree contribution      =     318.92908982 Ry
     xc contribution           =     -51.36461365 Ry
     ewald contribution        =      -2.17543691 Ry
     smearing contrib. (-TS)   =      -0.00496515 Ry

     convergence has been achieved in   8 iterations

     Forces acting on atoms (Ry/au):

     atom    1 type  1   force =     0.00354627   -0.00720839   -0.00721002
     atom    2 type  1   force =     0.00565536    0.00408610    0.00391984
     atom    3 type  1   force =     0.01468519    0.00929929    0.02180229
     atom    4 type  1   force =     0.00035262   -0.00484927   -0.00184536
     atom    5 type  1   force =    -0.02423944   -0.00132773   -0.01666674

     Total force =     0.043037     Total SCF correction =     0.000207

     number of scf cycles    =  50
     number of bfgs steps    =  25

     energy   old            =    -329.4833416774 Ry
     energy   new            =    -329.4781733697 Ry

     CASE: energy  _new > energy  _old

     new trust radius        =       0.0001300235 bohr
     new conv_thr            =       0.0000000024 Ry

ATOMIC_POSITIONS (bohr)
Au      -2.386831680   1.684350110  -0.356022089
Au      -0.877018228   3.888037111   3.932894140
Au       2.543909015   1.048615068   0.914655542
Au       3.898190033   4.732339995   5.552741290
Au       7.185319860   1.224920716   3.858768116

     Writing output data file pwscf.save
     Check: negative starting charge=   -0.006172
     NEW-OLD atomic charge density approx. for the potential
     Check: negative starting charge=   -0.006170

     negative rho (up, down):  5.796E-08 0.000E+00

     Writing output data file pwscf.save

     General routines

     Parallel routines

   This run was terminated on:   6:11:30   4Aug2017

   JOB DONE.