     Program PWSCF v.6.0 (svn rev. 13079) starts on  3Aug2017 at 22: 2:44

     Current dimensions of program PWSCF are:
     Max number of different atomic species (ntypx) = 10
     Max number of k-points (npk) =  40000
     Max angular momentum in pseudopotentials (lmaxx) =  3
     Message from routine iosys:
     pot_extrapolation='second-order' not available, using 'atomic'
     Message from routine iosys:
     wfc_extrapolation='second-order' not available, using 'atomic'

     Subspace diagonalization in iterative solution of the eigenvalue problem:
     a serial algorithm will be used

     bravais-lattice index     =            1
     lattice parameter (alat)  =      20.0000  a.u.
     unit-cell volume          =    8000.0000 (a.u.)^3
     number of atoms/cell      =            5
     number of atomic types    =            1
     number of electrons       =        55.00
     number of Kohn-Sham states=           34
     kinetic-energy cutoff     =      30.0000  Ry
     charge density cutoff     =     120.0000  Ry
     convergence threshold     =      1.0E-08
     mixing beta               =       0.7000
     number of iterations used =            8  plain     mixing
     Exchange-correlation      = BLYP ( 1  3  1  3 0 0)
     nstep                     =           50

     celldm(1)=  20.000000  celldm(2)=   0.000000  celldm(3)=   0.000000
     celldm(4)=   0.000000  celldm(5)=   0.000000  celldm(6)=   0.000000

     crystal axes: (cart. coord. in units of alat)
               a(1) = (   1.000000   0.000000   0.000000 )
               a(2) = (   0.000000   1.000000   0.000000 )
               a(3) = (   0.000000   0.000000   1.000000 )

     reciprocal axes: (cart. coord. in units 2 pi/alat)
               b(1) = (  1.000000  0.000000  0.000000 )
               b(2) = (  0.000000  1.000000  0.000000 )
               b(3) = (  0.000000  0.000000  1.000000 )

     PseudoPot. # 1 for Au read from file:
     ./Au.blyp-d-hgh.UPF
     MD5 check sum: c10d8bae01f806c36a1643a1c69a8479
     Pseudo is Norm-conserving, Zval = 11.0
     Generated in analytical, separable form
     Using radial grid of 1279 points,  6 beta functions with:
                l(1) =   0
                l(2) =   0
                l(3) =   1
                l(4) =   1
                l(5) =   2
                l(6) =   2

     atomic species   valence    mass     pseudopotential
        Au            11.00    28.08600     Au( 1.00)

     No symmetry found

   Cartesian axes

     site n.     atom                  positions (alat units)
         1           Au  tau(   1) = (  -0.0991208   0.0917348  -0.0308227  )
         2           Au  tau(   2) = (  -0.0132628   0.1292613   0.2245144  )
         3           Au  tau(   3) = (   0.1484554   0.0995057   0.0157236  )
         4           Au  tau(   4) = (   0.2262877   0.1927481   0.2778517  )
         5           Au  tau(   5) = (   0.3803250   0.0624249   0.1189029  )

     number of k points=     1  Marzari-Vanderbilt smearing, width (Ry)=  0.0250
                       cart. coord. in units 2pi/alat
        k(    1) = (   0.0000000   0.0000000   0.0000000), wk =   2.0000000

     Initial potential from superposition of free atoms
     Check: negative starting charge=   -0.006441

     starting charge   54.99940, renormalised to   55.00000

     negative rho (up, down):  6.442E-03 0.000E+00
     Starting wfc are   45 randomized atomic wfcs

     Self-consistent Calculation

     iteration #  1     ecut=    30.00 Ry     beta=0.70
     Davidson diagonalization with overlap
     ethr =  1.00E-02,  avg # of iterations =  3.0

     Threshold (ethr) on eigenvalues was too large:
     Diagonalizing with lowered threshold

     Davidson diagonalization with overlap
     ethr =  3.91E-04,  avg # of iterations =  7.0

     negative rho (up, down):  8.824E-04 0.000E+00

     total energy              =    -329.37599210 Ry
     Harris-Foulkes estimate   =    -329.53818555 Ry
     estimated scf accuracy    <       0.27164219 Ry

[...]

     End of self-consistent calculation

          k = 0.0000 0.0000 0.0000 ( 22119 PWs)   bands (ev):

    -8.3105  -7.6481  -7.5856  -7.1658  -7.0516  -6.7078  -6.5732  -6.4155
    -6.1374  -6.0341  -5.8992  -5.7639  -5.7234  -5.6093  -5.4407  -5.3805
    -5.3080  -5.2532  -5.2132  -5.1889  -5.1564  -5.1264  -4.9750  -4.9442
    -4.8684  -4.6082  -4.4855  -3.7902  -2.5014  -2.3012  -0.4798  -0.2090
     0.4534   0.6558

     the Fermi energy is    -3.7627 ev

!    total energy              =    -329.48206686 Ry
     Harris-Foulkes estimate   =    -329.48206690 Ry
     estimated scf accuracy    <          3.1E-09 Ry

     The total energy is the sum of the following terms:

     one-electron contribution =    -604.31960883 Ry
     hartree contribution      =     323.64575845 Ry
     xc contribution           =     -51.38315388 Ry
     ewald contribution        =       2.57796564 Ry
     smearing contrib. (-TS)   =      -0.00302824 Ry

     convergence has been achieved in  12 iterations

     Forces acting on atoms (Ry/au):

     atom    1 type  1   force =     0.00593997    0.00352532    0.01334298
     atom    2 type  1   force =    -0.01167452   -0.00061278   -0.01861908
     atom    3 type  1   force =     0.00617133   -0.00498532    0.01027610
     atom    4 type  1   force =     0.00669936   -0.00408499   -0.00232296
     atom    5 type  1   force =    -0.00713613    0.00615777   -0.00267705

     Total force =     0.032258     Total SCF correction =     0.000264

     BFGS Geometry Optimization

     number of scf cycles    =   1
     number of bfgs steps    =   0

     energy   new            =    -329.4820668600 Ry

     new trust radius        =       0.0219849982 bohr
     new conv_thr            =       0.0000000100 Ry

ATOMIC_POSITIONS (bohr)
Au      -1.976475027   1.838220316  -0.603111020
Au      -0.276930524   2.584613216   4.471669920
Au       2.975279328   1.985127678   0.324749105
Au       4.532453357   3.850877015   5.554711040
Au       7.599363866   1.254656775   2.375381955

     Writing output data file pwscf.save
     Check: negative starting charge=   -0.006441
     NEW-OLD atomic charge density approx. for the potential
     Check: negative starting charge=   -0.006456

[...]

     energy   old            =    -329.4820668600 Ry
     energy   new            =    -329.4830177366 Ry

     CASE: energy  _new < energy  _old

     WARNING: bfgs curvature condition failed, Theta= 0.965
     new trust radius        =       0.0241834980 bohr
     new conv_thr            =       0.0000000010 Ry

[...]

     WARNING: bfgs curvature condition failed, Theta= 0.891
     new trust radius        =       0.0440530407 bohr
     new conv_thr            =       0.0000000002 Ry

[...]

     number of scf cycles    =  28
     number of bfgs steps    =  27

     energy   old            =    -329.4907328826 Ry
     energy   new            =    -329.4907649817 Ry

     CASE: energy  _new < energy  _old

     new trust radius        =       0.0131517057 bohr
     new conv_thr            =            1.0E-10 Ry

ATOMIC_POSITIONS (bohr)
Au      -1.867767533   1.870073606  -0.569187309
Au      -0.583940641   3.095856394   4.274403188
Au       3.057659294   1.647478907   0.582359045
Au       4.410979580   3.299298613   5.634103324
Au       7.836760300   1.600787481   2.201722751

     Writing output data file pwscf.save
     Check: negative starting charge=   -0.006527
     NEW-OLD atomic charge density approx. for the potential
     Check: negative starting charge=   -0.006531

[...]

     Self-consistent Calculation

[...]

     Threshold (ethr) on eigenvalues was too large:
     Diagonalizing with lowered threshold

     Davidson diagonalization with overlap
     ethr =  7.24E-08,  avg # of iterations =  1.0

     negative rho (up, down):  4.293E-08 0.000E+00

[...]

     total energy              =    -329.49078002 Ry
     Harris-Foulkes estimate   =    -329.49078002 Ry
     estimated scf accuracy    <          2.3E-10 Ry

     iteration # 10     ecut=    30.00 Ry     beta=0.70
     Davidson diagonalization with overlap
     ethr =  4.14E-13,  avg # of iterations =  2.0

     End of self-consistent calculation

          k = 0.0000 0.0000 0.0000 ( 22119 PWs)   bands (ev):

    -8.5073  -7.7928  -7.6531  -7.2468  -6.8669  -6.8131  -6.6346  -6.4868
    -6.3079  -6.0685  -5.9725  -5.7684  -5.7305  -5.6881  -5.4618  -5.3739
    -5.3143  -5.2481  -5.1980  -5.1879  -5.1736  -5.1275  -5.0025  -4.9230
    -4.8440  -4.7278  -4.4767  -3.7818  -2.5259  -2.1869  -0.5728  -0.2109
     0.5279   0.9080

     the Fermi energy is    -3.7500 ev

!    total energy              =    -329.49078001 Ry
     Harris-Foulkes estimate   =    -329.49078002 Ry
     estimated scf accuracy    <          2.3E-11 Ry

     The total energy is the sum of the following terms:

     one-electron contribution =    -610.39468924 Ry
     hartree contribution      =     326.62458488 Ry
     xc contribution           =     -51.40437186 Ry
     ewald contribution        =       5.68787104 Ry
     smearing contrib. (-TS)   =      -0.00417483 Ry

     convergence has been achieved in  10 iterations

     Forces acting on atoms (Ry/au):

     atom    1 type  1   force =     0.00010992    0.00026110   -0.00054102
     atom    2 type  1   force =     0.00059015   -0.00001034   -0.00026766
     atom    3 type  1   force =    -0.00034106   -0.00030647    0.00068437
     atom    4 type  1   force =    -0.00007272    0.00013500    0.00017366
     atom    5 type  1   force =    -0.00028629   -0.00007929   -0.00004934

     Total force =     0.001271     Total SCF correction =     0.000019

     bfgs converged in  29 scf cycles and  28 bfgs steps
     (criteria: energy <  1.0E-04, force <  1.0E-03)

     End of BFGS Geometry Optimization

     Final energy   =    -329.4907800081 Ry
Begin final coordinates

ATOMIC_POSITIONS (bohr)
Au      -1.867767533   1.870073606  -0.569187309
Au      -0.583940641   3.095856394   4.274403188
Au       3.057659294   1.647478907   0.582359045
Au       4.410979580   3.299298613   5.634103324
Au       7.836760300   1.600787481   2.201722751
End final coordinates

     Writing output data file pwscf.save

     General routines

     Parallel routines

   This run was terminated on:  22: 4: 1   3Aug2017

   JOB DONE.