     Program PWSCF v.6.0 (svn rev. 13079) starts on  3Aug2017 at 19:58:42

     Current dimensions of program PWSCF are:
     Max number of different atomic species (ntypx) = 10
     Max number of k-points (npk) =  40000
     Max angular momentum in pseudopotentials (lmaxx) =  3
     Message from routine iosys:
     pot_extrapolation='second-order' not available, using 'atomic'
     Message from routine iosys:
     wfc_extrapolation='second-order' not available, using 'atomic'

     Subspace diagonalization in iterative solution of the eigenvalue problem:
     a serial algorithm will be used

     bravais-lattice index     =            1
     lattice parameter (alat)  =      20.0000  a.u.
     unit-cell volume          =    8000.0000 (a.u.)^3
     number of atoms/cell      =            5
     number of atomic types    =            1
     number of electrons       =        55.00
     number of Kohn-Sham states=           34
     kinetic-energy cutoff     =      30.0000  Ry
     charge density cutoff     =     120.0000  Ry
     convergence threshold     =      1.0E-08
     mixing beta               =       0.7000
     number of iterations used =            8  plain     mixing
     Exchange-correlation      = BLYP ( 1  3  1  3 0 0)
     nstep                     =           50

     celldm(1)=  20.000000  celldm(2)=   0.000000  celldm(3)=   0.000000
     celldm(4)=   0.000000  celldm(5)=   0.000000  celldm(6)=   0.000000

     crystal axes: (cart. coord. in units of alat)
               a(1) = (   1.000000   0.000000   0.000000 )
               a(2) = (   0.000000   1.000000   0.000000 )
               a(3) = (   0.000000   0.000000   1.000000 )

     reciprocal axes: (cart. coord. in units 2 pi/alat)
               b(1) = (  1.000000  0.000000  0.000000 )
               b(2) = (  0.000000  1.000000  0.000000 )
               b(3) = (  0.000000  0.000000  1.000000 )

     PseudoPot. # 1 for Au read from file:
     ./Au.blyp-d-hgh.UPF
     MD5 check sum: c10d8bae01f806c36a1643a1c69a8479
     Pseudo is Norm-conserving, Zval = 11.0
     Generated in analytical, separable form
     Using radial grid of 1279 points,  6 beta functions with:
                l(1) =   0
                l(2) =   0
                l(3) =   1
                l(4) =   1
                l(5) =   2
                l(6) =   2

     atomic species   valence    mass     pseudopotential
        Au            11.00    28.08600     Au( 1.00)

     No symmetry found

   Cartesian axes

     site n.     atom                  positions (alat units)
         1           Au  tau(   1) = (  -0.1022860   0.0697447  -0.0268020  )
         2           Au  tau(   2) = (  -0.0305356   0.0975591   0.2109776  )
         3           Au  tau(   3) = (   0.1544733   0.0829378  -0.0070351  )
         4           Au  tau(   4) = (   0.2041438   0.1816043   0.2752165  )
         5           Au  tau(   5) = (   0.3944250   0.1049384   0.1215826  )

     number of k points=     1  Marzari-Vanderbilt smearing, width (Ry)=  0.0250
                       cart. coord. in units 2pi/alat
        k(    1) = (   0.0000000   0.0000000   0.0000000), wk =   2.0000000

     Initial potential from superposition of free atoms
     Check: negative starting charge=   -0.006427

     starting charge   54.99940, renormalised to   55.00000

     negative rho (up, down):  6.428E-03 0.000E+00
     Starting wfc are   45 randomized atomic wfcs

     Self-consistent Calculation

     iteration #  1     ecut=    30.00 Ry     beta=0.70
     Davidson diagonalization with overlap
     ethr =  1.00E-02,  avg # of iterations =  3.0

     Threshold (ethr) on eigenvalues was too large:
     Diagonalizing with lowered threshold

     Davidson diagonalization with overlap
     ethr =  3.97E-04,  avg # of iterations =  5.0

     negative rho (up, down):  8.853E-04 0.000E+00

     total energy              =    -329.35818962 Ry
     Harris-Foulkes estimate   =    -329.52366613 Ry
     estimated scf accuracy    <       0.27470866 Ry

[...]

     End of self-consistent calculation

          k = 0.0000 0.0000 0.0000 ( 22119 PWs)   bands (ev):

    -8.0160  -7.4873  -7.4437  -7.0225  -6.8634  -6.7457  -6.5362  -6.3062
    -6.1563  -6.0605  -5.8129  -5.6837  -5.6252  -5.5831  -5.4530  -5.3553
    -5.3323  -5.2139  -5.1805  -5.1758  -5.1373  -5.1047  -5.0765  -4.9557
    -4.8435  -4.7100  -4.3958  -3.7977  -2.7690  -2.1898  -0.4841  -0.2464
     0.4365   0.6869

     the Fermi energy is    -3.7807 ev

!    total energy              =    -329.47101695 Ry
     Harris-Foulkes estimate   =    -329.47101694 Ry
     estimated scf accuracy    <          6.0E-09 Ry

     The total energy is the sum of the following terms:

     one-electron contribution =    -593.97489087 Ry
     hartree contribution      =     318.55186736 Ry
     xc contribution           =     -51.36281604 Ry
     ewald contribution        =      -2.68404611 Ry
     smearing contrib. (-TS)   =      -0.00113129 Ry

     convergence has been achieved in  12 iterations

     Forces acting on atoms (Ry/au):

     atom    1 type  1   force =     0.00797246   -0.00333362   -0.01705706
     atom    2 type  1   force =     0.01203783    0.00273577    0.00297331
     atom    3 type  1   force =     0.00622858    0.00604623    0.03509966
     atom    4 type  1   force =     0.00479827   -0.00679230   -0.01014975
     atom    5 type  1   force =    -0.03103714    0.00134393   -0.01086615

     Total force =     0.055584     Total SCF correction =     0.000275

     BFGS Geometry Optimization

     number of scf cycles    =   1
     number of bfgs steps    =   0

     energy   new            =    -329.4710169469 Ry

     new trust radius        =       0.0361571286 bohr
     new conv_thr            =       0.0000000100 Ry

ATOMIC_POSITIONS (bohr)
Au      -2.037746539   1.391561378  -0.553097063
Au      -0.598673171   1.953916769   4.222525314
Au       3.095693584   1.664801227  -0.105602344
Au       4.087675271   3.625294696   5.494179248
Au       7.857462855   2.100111930   2.420785846

     Writing output data file pwscf.save
     Check: negative starting charge=   -0.006427
     NEW-OLD atomic charge density approx. for the potential
     Check: negative starting charge=   -0.006419

[...]

     energy   old            =    -329.4710169469 Ry
     energy   new            =    -329.4739554127 Ry

     CASE: energy  _new < energy  _old

     WARNING: bfgs curvature condition failed, Theta= 0.889
     new trust radius        =       0.0397728415 bohr
     new conv_thr            =       0.0000000029 Ry

[...]

     WARNING: bfgs curvature condition failed, Theta= 0.682
     uphill step: resetting bfgs history

[...]

     WARNING: bfgs curvature condition failed, Theta= 0.194
     new trust radius        =       0.0465405000 bohr
     new conv_thr            =            1.0E-10 Ry

[...]

     number of scf cycles    =  39
     number of bfgs steps    =  38

     energy   old            =    -329.4911523173 Ry
     energy   new            =    -329.4911951630 Ry

     CASE: energy  _new < energy  _old

     new trust radius        =       0.0129681919 bohr
     new conv_thr            =            1.0E-10 Ry

ATOMIC_POSITIONS (bohr)
Au      -1.752841503   1.146366999  -0.843142282
Au      -0.826009797   2.480669131   4.080412729
Au       3.090226658   1.682564358   0.461039400
Au       4.091931314   3.083715443   5.628307208
Au       7.801105328   2.342370070   2.152173945

     Writing output data file pwscf.save
     Check: negative starting charge=   -0.006541
     NEW-OLD atomic charge density approx. for the potential
     Check: negative starting charge=   -0.006536

[...]

     Self-consistent Calculation

[...]

     Threshold (ethr) on eigenvalues was too large:
     Diagonalizing with lowered threshold

     Davidson diagonalization with overlap
     ethr =  6.67E-08,  avg # of iterations =  1.0

     negative rho (up, down):  2.521E-08 0.000E+00

[...]

     total energy              =    -329.49121409 Ry
     Harris-Foulkes estimate   =    -329.49121405 Ry
     estimated scf accuracy    <          4.3E-10 Ry

     iteration #  9     ecut=    30.00 Ry     beta=0.70
     Davidson diagonalization with overlap
     ethr =  7.75E-13,  avg # of iterations =  2.0

     End of self-consistent calculation

          k = 0.0000 0.0000 0.0000 ( 22119 PWs)   bands (ev):

    -8.5307  -7.7988  -7.6604  -7.2371  -6.8477  -6.8284  -6.6204  -6.4920
    -6.3060  -6.0896  -5.9604  -5.7773  -5.7396  -5.6889  -5.4726  -5.3574
    -5.3157  -5.2542  -5.2013  -5.1911  -5.1715  -5.1236  -5.0042  -4.9265
    -4.8383  -4.7398  -4.4817  -3.7786  -2.5050  -2.2055  -0.5824  -0.2059
     0.4902   0.9313

     the Fermi energy is    -3.7455 ev

!    total energy              =    -329.49121411 Ry
     Harris-Foulkes estimate   =    -329.49121409 Ry
     estimated scf accuracy    <          7.4E-11 Ry

     The total energy is the sum of the following terms:

     one-electron contribution =    -610.36105438 Ry
     hartree contribution      =     326.60320236 Ry
     xc contribution           =     -51.40359944 Ry
     ewald contribution        =       5.67469120 Ry
     smearing contrib. (-TS)   =      -0.00445385 Ry

     convergence has been achieved in   9 iterations

     Forces acting on atoms (Ry/au):

     atom    1 type  1   force =    -0.00018416   -0.00066397    0.00024335
     atom    2 type  1   force =     0.00074776    0.00053303   -0.00072416
     atom    3 type  1   force =    -0.00025571   -0.00024305   -0.00045735
     atom    4 type  1   force =    -0.00024230    0.00040952   -0.00001671
     atom    5 type  1   force =    -0.00006558   -0.00003553    0.00095487

     Total force =     0.001838     Total SCF correction =     0.000039

     bfgs converged in  40 scf cycles and  39 bfgs steps
     (criteria: energy <  1.0E-04, force <  1.0E-03)

     End of BFGS Geometry Optimization

     Final energy   =    -329.4912141068 Ry
Begin final coordinates

ATOMIC_POSITIONS (bohr)
Au      -1.752841503   1.146366999  -0.843142282
Au      -0.826009797   2.480669131   4.080412729
Au       3.090226658   1.682564358   0.461039400
Au       4.091931314   3.083715443   5.628307208
Au       7.801105328   2.342370070   2.152173945
End final coordinates

     Writing output data file pwscf.save

     General routines

     Parallel routines

   This run was terminated on:  20: 0:26   3Aug2017

   JOB DONE.