     Program PWSCF v.6.0 (svn rev. 13079) starts on  4Aug2017 at  0:14:53

     Current dimensions of program PWSCF are:
     Max number of different atomic species (ntypx) = 10
     Max number of k-points (npk) =  40000
     Max angular momentum in pseudopotentials (lmaxx) =  3
     Message from routine iosys:
     pot_extrapolation='second-order' not available, using 'atomic'
     Message from routine iosys:
     wfc_extrapolation='second-order' not available, using 'atomic'

     Subspace diagonalization in iterative solution of the eigenvalue problem:
     a serial algorithm will be used

     bravais-lattice index     =            1
     lattice parameter (alat)  =      20.0000  a.u.
     unit-cell volume          =    8000.0000 (a.u.)^3
     number of atoms/cell      =            5
     number of atomic types    =            1
     number of electrons       =        55.00
     number of Kohn-Sham states=           34
     kinetic-energy cutoff     =      30.0000  Ry
     charge density cutoff     =     120.0000  Ry
     convergence threshold     =      1.0E-08
     mixing beta               =       0.7000
     number of iterations used =            8  plain     mixing
     Exchange-correlation      = BLYP ( 1  3  1  3 0 0)
     nstep                     =           50

     celldm(1)=  20.000000  celldm(2)=   0.000000  celldm(3)=   0.000000
     celldm(4)=   0.000000  celldm(5)=   0.000000  celldm(6)=   0.000000

     crystal axes: (cart. coord. in units of alat)
               a(1) = (   1.000000   0.000000   0.000000 )
               a(2) = (   0.000000   1.000000   0.000000 )
               a(3) = (   0.000000   0.000000   1.000000 )

     reciprocal axes: (cart. coord. in units 2 pi/alat)
               b(1) = (  1.000000  0.000000  0.000000 )
               b(2) = (  0.000000  1.000000  0.000000 )
               b(3) = (  0.000000  0.000000  1.000000 )

     PseudoPot. # 1 for Au read from file:
     ./Au.blyp-d-hgh.UPF
     MD5 check sum: c10d8bae01f806c36a1643a1c69a8479
     Pseudo is Norm-conserving, Zval = 11.0
     Generated in analytical, separable form
     Using radial grid of 1279 points,  6 beta functions with:
                l(1) =   0
                l(2) =   0
                l(3) =   1
                l(4) =   1
                l(5) =   2
                l(6) =   2

     atomic species   valence    mass     pseudopotential
        Au            11.00    28.08600     Au( 1.00)

     No symmetry found

   Cartesian axes

     site n.     atom                  positions (alat units)
         1           Au  tau(   1) = (  -0.0953100   0.2012475  -0.0316406  )
         2           Au  tau(   2) = (  -0.0018480   0.1221729   0.2208454  )
         3           Au  tau(   3) = (   0.1455871   0.1283570   0.0013502  )
         4           Au  tau(   4) = (   0.2177158   0.2203148   0.2859371  )
         5           Au  tau(   5) = (   0.3476908   0.0397718   0.1246803  )

     number of k points=     1  Marzari-Vanderbilt smearing, width (Ry)=  0.0250
                       cart. coord. in units 2pi/alat
        k(    1) = (   0.0000000   0.0000000   0.0000000), wk =   2.0000000

     Initial potential from superposition of free atoms
     Check: negative starting charge=   -0.006048

     starting charge   54.99940, renormalised to   55.00000

     negative rho (up, down):  6.049E-03 0.000E+00
     Starting wfc are   45 randomized atomic wfcs

     Self-consistent Calculation

     iteration #  1     ecut=    30.00 Ry     beta=0.70
     Davidson diagonalization with overlap
     ethr =  1.00E-02,  avg # of iterations =  3.0

     Threshold (ethr) on eigenvalues was too large:
     Diagonalizing with lowered threshold

     Davidson diagonalization with overlap
     ethr =  3.78E-04,  avg # of iterations =  8.0

     negative rho (up, down):  8.023E-04 0.000E+00

     total energy              =    -329.35437950 Ry
     Harris-Foulkes estimate   =    -329.50965319 Ry
     estimated scf accuracy    <       0.26316249 Ry

[...]

     End of self-consistent calculation

          k = 0.0000 0.0000 0.0000 ( 22119 PWs)   bands (ev):

    -8.1001  -7.5955  -7.3863  -7.1557  -6.7760  -6.5952  -6.4730  -6.3576
    -6.1322  -5.8381  -5.7258  -5.6751  -5.5940  -5.5236  -5.4995  -5.3687
    -5.3095  -5.2129  -5.1561  -5.0904  -5.0715  -4.9716  -4.8922  -4.8458
    -4.7961  -4.4911  -4.3841  -3.8089  -2.6185  -2.2811  -0.2481  -0.1512
     0.3047   0.5979

     the Fermi energy is    -3.8196 ev

!    total energy              =    -329.45693149 Ry
     Harris-Foulkes estimate   =    -329.45693152 Ry
     estimated scf accuracy    <          5.3E-09 Ry

     The total energy is the sum of the following terms:

     one-electron contribution =    -597.77310931 Ry
     hartree contribution      =     320.54868746 Ry
     xc contribution           =     -51.37496996 Ry
     ewald contribution        =      -0.86254930 Ry
     smearing contrib. (-TS)   =       0.00500963 Ry

     convergence has been achieved in  12 iterations

     Forces acting on atoms (Ry/au):

     atom    1 type  1   force =     0.00668142   -0.00933907    0.01711631
     atom    2 type  1   force =    -0.02293109    0.00925846   -0.02828715
     atom    3 type  1   force =    -0.00762626    0.00037847    0.00989721
     atom    4 type  1   force =     0.02736341   -0.01627730   -0.00986101
     atom    5 type  1   force =    -0.00348748    0.01597943    0.01113464

     Total force =     0.059120     Total SCF correction =     0.000279

     BFGS Geometry Optimization

     number of scf cycles    =   1
     number of bfgs steps    =   0

     energy   new            =    -329.4569314874 Ry

     new trust radius        =       0.0375728179 bohr
     new conv_thr            =       0.0000000100 Ry

ATOMIC_POSITIONS (bohr)
Au      -1.899518580   4.015610932  -0.615696693
Au      -0.059891088   2.452717460   4.388620851
Au       2.904115744   2.567518473   0.036900207
Au       4.381679405   4.390017702   5.708881992
Au       6.950329519   0.811414433   2.504739643

     Writing output data file pwscf.save
     Check: negative starting charge=   -0.006048
     NEW-OLD atomic charge density approx. for the potential
     Check: negative starting charge=   -0.006065

[...]

     energy   old            =    -329.4569314874 Ry
     energy   new            =    -329.4601131236 Ry

     CASE: energy  _new < energy  _old

     WARNING: bfgs curvature condition failed, Theta= 0.973
     new trust radius        =       0.0413300997 bohr
     new conv_thr            =       0.0000000022 Ry

[...]

     WARNING: bfgs curvature condition failed, Theta= 0.862
     new trust radius        =       0.0528153151 bohr
     new conv_thr            =            1.0E-10 Ry

[...]

     number of scf cycles    =  46
     number of bfgs steps    =  45

     energy   old            =    -329.4921717000 Ry
     energy   new            =    -329.4921956113 Ry

     CASE: energy  _new < energy  _old

     new trust radius        =       0.0123523677 bohr
     new conv_thr            =            1.0E-10 Ry

ATOMIC_POSITIONS (bohr)
Au      -1.915027034   3.660158605  -0.647820313
Au      -0.530459999   3.953011738   4.333596992
Au       2.857720210   2.429937717   0.497302712
Au       4.377098964   3.029653610   5.749610345
Au       7.487382859   1.164517331   2.090756263

     Writing output data file pwscf.save
     Check: negative starting charge=   -0.006407
     NEW-OLD atomic charge density approx. for the potential
     Check: negative starting charge=   -0.006402

     negative rho (up, down):  1.225E-05 0.000E+00

     Self-consistent Calculation

[...]

     Threshold (ethr) on eigenvalues was too large:
     Diagonalizing with lowered threshold

     Davidson diagonalization with overlap
     ethr =  4.99E-08,  avg # of iterations =  1.0

[...]

     total energy              =    -329.49220471 Ry
     Harris-Foulkes estimate   =    -329.49220475 Ry
     estimated scf accuracy    <          4.1E-10 Ry

     iteration #  9     ecut=    30.00 Ry     beta=0.70
     Davidson diagonalization with overlap
     ethr =  7.49E-13,  avg # of iterations =  3.0

     End of self-consistent calculation

          k = 0.0000 0.0000 0.0000 ( 22119 PWs)   bands (ev):

    -8.5053  -7.7822  -7.6540  -7.2334  -6.8605  -6.8080  -6.6059  -6.4851
    -6.2999  -6.0749  -5.9543  -5.7615  -5.7248  -5.6836  -5.4608  -5.3635
    -5.3134  -5.2469  -5.2016  -5.1848  -5.1680  -5.1240  -5.0004  -4.9314
    -4.8483  -4.7157  -4.4902  -3.7736  -2.4624  -2.1977  -0.5454  -0.2209
     0.4987   0.7507

     the Fermi energy is    -3.7393 ev

!    total energy              =    -329.49220470 Ry
     Harris-Foulkes estimate   =    -329.49220471 Ry
     estimated scf accuracy    <          6.5E-11 Ry

     The total energy is the sum of the following terms:

     one-electron contribution =    -607.52210177 Ry
     hartree contribution      =     325.19309803 Ry
     xc contribution           =     -51.39845174 Ry
     ewald contribution        =       4.23996754 Ry
     smearing contrib. (-TS)   =      -0.00471675 Ry

     convergence has been achieved in   9 iterations

     Forces acting on atoms (Ry/au):

     atom    1 type  1   force =     0.00031767   -0.00040306    0.00045921
     atom    2 type  1   force =    -0.00058858    0.00053559    0.00047575
     atom    3 type  1   force =     0.00038162    0.00012840   -0.00035909
     atom    4 type  1   force =     0.00045174    0.00036142   -0.00001643
     atom    5 type  1   force =    -0.00056245   -0.00062235   -0.00055945

     Total force =     0.001725     Total SCF correction =     0.000040

     bfgs converged in  47 scf cycles and  46 bfgs steps
     (criteria: energy <  1.0E-04, force <  1.0E-03)

     End of BFGS Geometry Optimization

     Final energy   =    -329.4922046994 Ry
Begin final coordinates

ATOMIC_POSITIONS (bohr)
Au      -1.915027034   3.660158605  -0.647820313
Au      -0.530459999   3.953011738   4.333596992
Au       2.857720210   2.429937717   0.497302712
Au       4.377098964   3.029653610   5.749610345
Au       7.487382859   1.164517331   2.090756263
End final coordinates

     Writing output data file pwscf.save

     General routines

     Parallel routines

   This run was terminated on:   0:16:56   4Aug2017

   JOB DONE.