     Program PWSCF v.6.0 (svn rev. 13079) starts on  4Aug2017 at  4:43:46

     Current dimensions of program PWSCF are:
     Max number of different atomic species (ntypx) = 10
     Max number of k-points (npk) =  40000
     Max angular momentum in pseudopotentials (lmaxx) =  3
     Message from routine iosys:
     pot_extrapolation='second-order' not available, using 'atomic'
     Message from routine iosys:
     wfc_extrapolation='second-order' not available, using 'atomic'

     Subspace diagonalization in iterative solution of the eigenvalue problem:
     a serial algorithm will be used

     bravais-lattice index     =            1
     lattice parameter (alat)  =      20.0000  a.u.
     unit-cell volume          =    8000.0000 (a.u.)^3
     number of atoms/cell      =            5
     number of atomic types    =            1
     number of electrons       =        55.00
     number of Kohn-Sham states=           34
     kinetic-energy cutoff     =      30.0000  Ry
     charge density cutoff     =     120.0000  Ry
     convergence threshold     =      1.0E-08
     mixing beta               =       0.7000
     number of iterations used =            8  plain     mixing
     Exchange-correlation      = BLYP ( 1  3  1  3 0 0)
     nstep                     =           50

     celldm(1)=  20.000000  celldm(2)=   0.000000  celldm(3)=   0.000000
     celldm(4)=   0.000000  celldm(5)=   0.000000  celldm(6)=   0.000000

     crystal axes: (cart. coord. in units of alat)
               a(1) = (   1.000000   0.000000   0.000000 )
               a(2) = (   0.000000   1.000000   0.000000 )
               a(3) = (   0.000000   0.000000   1.000000 )

     reciprocal axes: (cart. coord. in units 2 pi/alat)
               b(1) = (  1.000000  0.000000  0.000000 )
               b(2) = (  0.000000  1.000000  0.000000 )
               b(3) = (  0.000000  0.000000  1.000000 )

     PseudoPot. # 1 for Au read from file:
     ./Au.blyp-d-hgh.UPF
     MD5 check sum: c10d8bae01f806c36a1643a1c69a8479
     Pseudo is Norm-conserving, Zval = 11.0
     Generated in analytical, separable form
     Using radial grid of 1279 points,  6 beta functions with:
                l(1) =   0
                l(2) =   0
                l(3) =   1
                l(4) =   1
                l(5) =   2
                l(6) =   2

     atomic species   valence    mass     pseudopotential
        Au            11.00    28.08600     Au( 1.00)

     No symmetry found

   Cartesian axes

     site n.     atom                  positions (alat units)
         1           Au  tau(   1) = (  -0.0688832   0.0260993   0.0071417  )
         2           Au  tau(   2) = (   0.0027764   0.1771212   0.1938667  )
         3           Au  tau(   3) = (   0.1553587   0.1701903  -0.0023071  )
         4           Au  tau(   4) = (   0.2367958   0.2366306   0.2751244  )
         5           Au  tau(   5) = (   0.2943535   0.0030538   0.1643786  )

     number of k points=     1  Marzari-Vanderbilt smearing, width (Ry)=  0.0250
                       cart. coord. in units 2pi/alat
        k(    1) = (   0.0000000   0.0000000   0.0000000), wk =   2.0000000

     Initial potential from superposition of free atoms
     Check: negative starting charge=   -0.005980

     starting charge   54.99940, renormalised to   55.00000

     negative rho (up, down):  5.980E-03 0.000E+00
     Starting wfc are   45 randomized atomic wfcs

     Self-consistent Calculation

     iteration #  1     ecut=    30.00 Ry     beta=0.70
     Davidson diagonalization with overlap
     ethr =  1.00E-02,  avg # of iterations =  3.0

     Threshold (ethr) on eigenvalues was too large:
     Diagonalizing with lowered threshold

     Davidson diagonalization with overlap
     ethr =  3.57E-04,  avg # of iterations =  6.0

     negative rho (up, down):  7.309E-04 0.000E+00

     total energy              =    -329.32958531 Ry
     Harris-Foulkes estimate   =    -329.48054889 Ry
     estimated scf accuracy    <       0.25290231 Ry

[...]

     End of self-consistent calculation

          k = 0.0000 0.0000 0.0000 ( 22119 PWs)   bands (ev):

    -8.3422  -7.7979  -7.4259  -7.1776  -6.8282  -6.6674  -6.6275  -6.6056
    -6.2974  -6.0081  -5.8594  -5.7155  -5.6206  -5.4933  -5.4882  -5.3239
    -5.2986  -5.1508  -5.1085  -5.1016  -5.0654  -5.0056  -4.9870  -4.9389
    -4.7079  -4.5212  -4.2727  -3.5146  -2.9804  -2.1968  -0.3105   0.0159
     0.2566   0.4313

     the Fermi energy is    -3.4780 ev

!    total energy              =    -329.42676003 Ry
     Harris-Foulkes estimate   =    -329.42676005 Ry
     estimated scf accuracy    <          7.8E-09 Ry

     The total energy is the sum of the following terms:

     one-electron contribution =    -614.98252024 Ry
     hartree contribution      =     329.07258894 Ry
     xc contribution           =     -51.38323406 Ry
     ewald contribution        =       7.87266704 Ry
     smearing contrib. (-TS)   =      -0.00626172 Ry

     convergence has been achieved in  12 iterations

     Forces acting on atoms (Ry/au):

     atom    1 type  1   force =    -0.00382497    0.00313421   -0.01548990
     atom    2 type  1   force =    -0.01963899    0.00821775    0.02978885
     atom    3 type  1   force =     0.01797578   -0.02653238   -0.00550559
     atom    4 type  1   force =     0.00659450   -0.00836891   -0.00333964
     atom    5 type  1   force =    -0.00110631    0.02354933   -0.00545373

     Total force =     0.058074     Total SCF correction =     0.000402

     BFGS Geometry Optimization

     number of scf cycles    =   1
     number of bfgs steps    =   0

     energy   new            =    -329.4267600332 Ry

     new trust radius        =       0.0366141670 bohr
     new conv_thr            =       0.0000000100 Ry

ATOMIC_POSITIONS (bohr)
Au      -1.381489969   0.525119210   0.127344102
Au       0.035889005   3.550640748   3.907122853
Au       3.125149779   3.377273618  -0.051646588
Au       4.742509495   4.724243095   5.499147365
Au       5.885964689   0.084625329   3.282118269

     Writing output data file pwscf.save
     Check: negative starting charge=   -0.005980
     NEW-OLD atomic charge density approx. for the potential
     Check: negative starting charge=   -0.005992

[...]

     energy   old            =    -329.4267600332 Ry
     energy   new            =    -329.4298131900 Ry

     CASE: energy  _new < energy  _old

     WARNING: bfgs curvature condition failed, Theta= 0.982
     new trust radius        =       0.0402755837 bohr
     new conv_thr            =       0.0000000026 Ry

[...]

     iteration #  1     ecut=    30.00 Ry     beta=0.70
     Davidson diagonalization with overlap
     c_bands:  1 eigenvalues not converged
     ethr =  1.00E-06,  avg # of iterations = 20.0

[...]

     Threshold (ethr) on eigenvalues was too large:
     Diagonalizing with lowered threshold

     Davidson diagonalization with overlap
     ethr =  8.10E-08,  avg # of iterations =  1.0

[...]

     WARNING: bfgs curvature condition failed, Theta= 0.477
     new trust radius        =       0.0380534670 bohr
     new conv_thr            =            1.0E-10 Ry

[...]

     Self-consistent Calculation

[...]

     total energy              =    -329.49284728 Ry
     Harris-Foulkes estimate   =    -329.49284728 Ry
     estimated scf accuracy    <          1.6E-10 Ry

     iteration # 11     ecut=    30.00 Ry     beta=0.70
     Davidson diagonalization with overlap
     ethr =  2.89E-13,  avg # of iterations =  3.0

     End of self-consistent calculation

          k = 0.0000 0.0000 0.0000 ( 22119 PWs)   bands (ev):

    -8.5316  -7.8048  -7.6875  -7.2477  -6.8326  -6.8185  -6.6089  -6.5096
    -6.3135  -6.0922  -5.9430  -5.7699  -5.7262  -5.6879  -5.4805  -5.3489
    -5.3073  -5.2594  -5.1954  -5.1777  -5.1664  -5.1147  -5.0061  -4.9281
    -4.8138  -4.7361  -4.4892  -3.7665  -2.4527  -2.1874  -0.5326  -0.1507
     0.4997   0.7944

     the Fermi energy is    -3.7314 ev

!    total energy              =    -329.49284730 Ry
     Harris-Foulkes estimate   =    -329.49284728 Ry
     estimated scf accuracy    <          3.1E-11 Ry

     The total energy is the sum of the following terms:

     one-electron contribution =    -607.58528876 Ry
     hartree contribution      =     325.21832552 Ry
     xc contribution           =     -51.40055419 Ry
     ewald contribution        =       4.27960673 Ry
     smearing contrib. (-TS)   =      -0.00493660 Ry

     convergence has been achieved in  11 iterations

     Forces acting on atoms (Ry/au):

     atom    1 type  1   force =    -0.00073501    0.00072503   -0.00291676
     atom    2 type  1   force =     0.00045795    0.00208367    0.00095171
     atom    3 type  1   force =     0.00329011   -0.00228697   -0.00092306
     atom    4 type  1   force =     0.00053044    0.00030747    0.00229161
     atom    5 type  1   force =    -0.00354349   -0.00082920    0.00059650

     Total force =     0.007153     Total SCF correction =     0.000024

     number of scf cycles    =  50
     number of bfgs steps    =  49

     energy   old            =    -329.4927861741 Ry
     energy   new            =    -329.4928473019 Ry

     CASE: energy  _new < energy  _old

     new trust radius        =       0.0505245916 bohr
     new conv_thr            =            1.0E-10 Ry

ATOMIC_POSITIONS (bohr)
Au      -1.660281899   1.815940080  -0.761358337
Au      -0.658337481   4.330339331   3.612528080
Au       3.024281498   1.329454495   1.059923185
Au       4.113128388   3.892225562   5.634215542
Au       7.589232494   0.893942533   3.218777532

     Writing output data file pwscf.save
     Check: negative starting charge=   -0.006381
     NEW-OLD atomic charge density approx. for the potential
     Check: negative starting charge=   -0.006371

     negative rho (up, down):  6.417E-04 0.000E+00

     Writing output data file pwscf.save

     General routines

     Parallel routines

   This run was terminated on:   4:46: 5   4Aug2017

   JOB DONE.