     Program PWSCF v.6.0 (svn rev. 13079) starts on  3Aug2017 at 14:13: 6

     Current dimensions of program PWSCF are:
     Max number of different atomic species (ntypx) = 10
     Max number of k-points (npk) =  40000
     Max angular momentum in pseudopotentials (lmaxx) =  3
     Message from routine iosys:
     pot_extrapolation='second-order' not available, using 'atomic'
     Message from routine iosys:
     wfc_extrapolation='second-order' not available, using 'atomic'

     Subspace diagonalization in iterative solution of the eigenvalue problem:
     a serial algorithm will be used

     bravais-lattice index     =            1
     lattice parameter (alat)  =      20.0000  a.u.
     unit-cell volume          =    8000.0000 (a.u.)^3
     number of atoms/cell      =            5
     number of atomic types    =            1
     number of electrons       =        55.00
     number of Kohn-Sham states=           34
     kinetic-energy cutoff     =      30.0000  Ry
     charge density cutoff     =     120.0000  Ry
     convergence threshold     =      1.0E-08
     mixing beta               =       0.7000
     number of iterations used =            8  plain     mixing
     Exchange-correlation      = BLYP ( 1  3  1  3 0 0)
     nstep                     =           50

     celldm(1)=  20.000000  celldm(2)=   0.000000  celldm(3)=   0.000000
     celldm(4)=   0.000000  celldm(5)=   0.000000  celldm(6)=   0.000000

     crystal axes: (cart. coord. in units of alat)
               a(1) = (   1.000000   0.000000   0.000000 )
               a(2) = (   0.000000   1.000000   0.000000 )
               a(3) = (   0.000000   0.000000   1.000000 )

     reciprocal axes: (cart. coord. in units 2 pi/alat)
               b(1) = (  1.000000  0.000000  0.000000 )
               b(2) = (  0.000000  1.000000  0.000000 )
               b(3) = (  0.000000  0.000000  1.000000 )

     PseudoPot. # 1 for Au read from file:
     ./Au.blyp-d-hgh.UPF
     MD5 check sum: c10d8bae01f806c36a1643a1c69a8479
     Pseudo is Norm-conserving, Zval = 11.0
     Generated in analytical, separable form
     Using radial grid of 1279 points,  6 beta functions with:
                l(1) =   0
                l(2) =   0
                l(3) =   1
                l(4) =   1
                l(5) =   2
                l(6) =   2

     atomic species   valence    mass     pseudopotential
        Au            11.00    28.08600     Au( 1.00)

     No symmetry found

   Cartesian axes

     site n.     atom                  positions (alat units)
         1           Au  tau(   1) = (  -0.0938243   0.1062391  -0.0395723  )
         2           Au  tau(   2) = (  -0.0368035   0.1935223   0.1906443  )
         3           Au  tau(   3) = (   0.1506463   0.0745940   0.0260391  )
         4           Au  tau(   4) = (   0.2055425   0.2062953   0.2739171  )
         5           Au  tau(   5) = (   0.3730219   0.0637892   0.1454769  )

     number of k points=     1  Marzari-Vanderbilt smearing, width (Ry)=  0.0250
                       cart. coord. in units 2pi/alat
        k(    1) = (   0.0000000   0.0000000   0.0000000), wk =   2.0000000

     Initial potential from superposition of free atoms
     Check: negative starting charge=   -0.006268

     starting charge   54.99940, renormalised to   55.00000

     negative rho (up, down):  6.268E-03 0.000E+00
     Starting wfc are   45 randomized atomic wfcs

     Self-consistent Calculation

     iteration #  1     ecut=    30.00 Ry     beta=0.70
     Davidson diagonalization with overlap
     ethr =  1.00E-02,  avg # of iterations =  3.0

     Threshold (ethr) on eigenvalues was too large:
     Diagonalizing with lowered threshold

     Davidson diagonalization with overlap
     ethr =  3.99E-04,  avg # of iterations =  5.0

     negative rho (up, down):  8.420E-04 0.000E+00

     total energy              =    -329.37997334 Ry
     Harris-Foulkes estimate   =    -329.54567293 Ry
     estimated scf accuracy    <       0.27588811 Ry

[...]

     End of self-consistent calculation

          k = 0.0000 0.0000 0.0000 ( 22119 PWs)   bands (ev):

    -8.3611  -7.7176  -7.6154  -7.1812  -6.9638  -6.7398  -6.7267  -6.4486
    -6.2688  -6.0549  -5.9708  -5.7440  -5.7054  -5.6563  -5.4173  -5.3524
    -5.3278  -5.2249  -5.1848  -5.1782  -5.1630  -5.1319  -5.0070  -4.9023
    -4.8556  -4.6839  -4.4115  -3.7830  -2.5120  -2.1555  -0.5165  -0.2021
     0.4892   0.7380

     the Fermi energy is    -3.7615 ev

!    total energy              =    -329.48892729 Ry
     Harris-Foulkes estimate   =    -329.48892729 Ry
     estimated scf accuracy    <          3.2E-09 Ry

     The total energy is the sum of the following terms:

     one-electron contribution =    -606.04766429 Ry
     hartree contribution      =     324.49309742 Ry
     xc contribution           =     -51.40381750 Ry
     ewald contribution        =       3.47143279 Ry
     smearing contrib. (-TS)   =      -0.00197570 Ry

     convergence has been achieved in  13 iterations

     Forces acting on atoms (Ry/au):

     atom    1 type  1   force =     0.00035714   -0.00375344   -0.01029809
     atom    2 type  1   force =     0.00162388    0.00202430    0.00269641
     atom    3 type  1   force =    -0.00631838    0.00478469    0.01167254
     atom    4 type  1   force =     0.00124876   -0.00085572    0.00000759
     atom    5 type  1   force =     0.00308861   -0.00219983   -0.00407845

     Total force =     0.019148     Total SCF correction =     0.000258

     BFGS Geometry Optimization

     number of scf cycles    =   1
     number of bfgs steps    =   0

     energy   new            =    -329.4889272883 Ry

     new trust radius        =       0.0141089829 bohr
     new conv_thr            =       0.0000000100 Ry

ATOMIC_POSITIONS (bohr)
Au      -1.876128865   2.121028563  -0.801745088
Au      -0.734446123   3.872469298   3.815583411
Au       3.006608618   1.496664688   0.532453541
Au       4.112098762   4.125049283   5.478350591
Au       7.463527608   1.273585168   2.905459545

     Writing output data file pwscf.save
     Check: negative starting charge=   -0.006268
     NEW-OLD atomic charge density approx. for the potential
     Check: negative starting charge=   -0.006267

[...]

     energy   old            =    -329.4889272883 Ry
     energy   new            =    -329.4892752544 Ry

     CASE: energy  _new < energy  _old

     WARNING: bfgs curvature condition failed, Theta= 0.892
     new trust radius        =       0.0155198812 bohr
     new conv_thr            =       0.0000000003 Ry

[...]

     WARNING: info= 15 for Hessian
     new trust radius        =       0.0171396510 bohr
     new conv_thr            =            1.0E-10 Ry

[...]

     CASE: energy  _new > energy  _old

[...]

     WARNING: info= 15 for Hessian
     uphill step: resetting bfgs history

[...]

     WARNING: bfgs curvature condition failed, Theta= 0.916
     new trust radius        =       0.0032251194 bohr
     new conv_thr            =            1.0E-10 Ry

[...]

     number of scf cycles    =  35
     number of bfgs steps    =  33

     energy   old            =    -329.4924277406 Ry
     energy   new            =    -329.4924545921 Ry

     CASE: energy  _new < energy  _old

     new trust radius        =       0.0108847781 bohr
     new conv_thr            =            1.0E-10 Ry

ATOMIC_POSITIONS (bohr)
Au      -1.852122719   2.011466777  -0.848072292
Au      -0.726749742   4.231970050   3.668600407
Au       2.934765163   1.569682081   0.751860794
Au       4.081791196   3.861135975   5.568564607
Au       7.533976102   1.214542116   2.789148483

     Writing output data file pwscf.save
     Check: negative starting charge=   -0.006386
     NEW-OLD atomic charge density approx. for the potential
     Check: negative starting charge=   -0.006388

     negative rho (up, down):  6.203E-06 0.000E+00

     Self-consistent Calculation

[...]

     Threshold (ethr) on eigenvalues was too large:
     Diagonalizing with lowered threshold

     Davidson diagonalization with overlap
     ethr =  2.85E-08,  avg # of iterations =  2.0

[...]

     total energy              =    -329.49247919 Ry
     Harris-Foulkes estimate   =    -329.49247923 Ry
     estimated scf accuracy    <          5.5E-10 Ry

     iteration #  9     ecut=    30.00 Ry     beta=0.70
     Davidson diagonalization with overlap
     ethr =  1.00E-12,  avg # of iterations =  2.0

     End of self-consistent calculation

          k = 0.0000 0.0000 0.0000 ( 22119 PWs)   bands (ev):

    -8.5127  -7.7866  -7.6588  -7.2389  -6.8492  -6.8157  -6.6156  -6.4879
    -6.3100  -6.0776  -5.9531  -5.7711  -5.7284  -5.6832  -5.4642  -5.3585
    -5.3120  -5.2500  -5.1994  -5.1805  -5.1698  -5.1214  -5.0018  -4.9197
    -4.8330  -4.7328  -4.4807  -3.7755  -2.4665  -2.1917  -0.5412  -0.1722
     0.5002   0.8299

     the Fermi energy is    -3.7423 ev

!    total energy              =    -329.49247915 Ry
     Harris-Foulkes estimate   =    -329.49247919 Ry
     estimated scf accuracy    <          6.4E-11 Ry

     The total energy is the sum of the following terms:

     one-electron contribution =    -607.73669329 Ry
     hartree contribution      =     325.29923816 Ry
     xc contribution           =     -51.40011615 Ry
     ewald contribution        =       4.34957651 Ry
     smearing contrib. (-TS)   =      -0.00448438 Ry

     convergence has been achieved in   9 iterations

     Forces acting on atoms (Ry/au):

     atom    1 type  1   force =     0.00039247   -0.00032861   -0.00087181
     atom    2 type  1   force =    -0.00032447    0.00026817   -0.00032571
     atom    3 type  1   force =    -0.00051759    0.00029815    0.00069747
     atom    4 type  1   force =     0.00057780    0.00042596    0.00015397
     atom    5 type  1   force =    -0.00012821   -0.00066367    0.00034608

     Total force =     0.001807     Total SCF correction =     0.000037

     bfgs converged in  36 scf cycles and  34 bfgs steps
     (criteria: energy <  1.0E-04, force <  1.0E-03)

     End of BFGS Geometry Optimization

     Final energy   =    -329.4924791455 Ry
Begin final coordinates

ATOMIC_POSITIONS (bohr)
Au      -1.852122719   2.011466777  -0.848072292
Au      -0.726749742   4.231970050   3.668600407
Au       2.934765163   1.569682081   0.751860794
Au       4.081791196   3.861135975   5.568564607
Au       7.533976102   1.214542116   2.789148483
End final coordinates

     Writing output data file pwscf.save

     General routines

     Parallel routines

   This run was terminated on:  14:14:59   3Aug2017

   JOB DONE.