     Program PWSCF v.6.0 (svn rev. 13079) starts on  3Aug2017 at 21:59:30

     Current dimensions of program PWSCF are:
     Max number of different atomic species (ntypx) = 10
     Max number of k-points (npk) =  40000
     Max angular momentum in pseudopotentials (lmaxx) =  3
     Message from routine iosys:
     pot_extrapolation='second-order' not available, using 'atomic'
     Message from routine iosys:
     wfc_extrapolation='second-order' not available, using 'atomic'

     Subspace diagonalization in iterative solution of the eigenvalue problem:
     a serial algorithm will be used

     bravais-lattice index     =            1
     lattice parameter (alat)  =      20.0000  a.u.
     unit-cell volume          =    8000.0000 (a.u.)^3
     number of atoms/cell      =            5
     number of atomic types    =            1
     number of electrons       =        55.00
     number of Kohn-Sham states=           34
     kinetic-energy cutoff     =      30.0000  Ry
     charge density cutoff     =     120.0000  Ry
     convergence threshold     =      1.0E-08
     mixing beta               =       0.7000
     number of iterations used =            8  plain     mixing
     Exchange-correlation      = BLYP ( 1  3  1  3 0 0)
     nstep                     =           50

     celldm(1)=  20.000000  celldm(2)=   0.000000  celldm(3)=   0.000000
     celldm(4)=   0.000000  celldm(5)=   0.000000  celldm(6)=   0.000000

     crystal axes: (cart. coord. in units of alat)
               a(1) = (   1.000000   0.000000   0.000000 )
               a(2) = (   0.000000   1.000000   0.000000 )
               a(3) = (   0.000000   0.000000   1.000000 )

     reciprocal axes: (cart. coord. in units 2 pi/alat)
               b(1) = (  1.000000  0.000000  0.000000 )
               b(2) = (  0.000000  1.000000  0.000000 )
               b(3) = (  0.000000  0.000000  1.000000 )

     PseudoPot. # 1 for Au read from file:
     ./Au.blyp-d-hgh.UPF
     MD5 check sum: c10d8bae01f806c36a1643a1c69a8479
     Pseudo is Norm-conserving, Zval = 11.0
     Generated in analytical, separable form
     Using radial grid of 1279 points,  6 beta functions with:
                l(1) =   0
                l(2) =   0
                l(3) =   1
                l(4) =   1
                l(5) =   2
                l(6) =   2

     atomic species   valence    mass     pseudopotential
        Au            11.00    28.08600     Au( 1.00)

     No symmetry found

   Cartesian axes

     site n.     atom                  positions (alat units)
         1           Au  tau(   1) = (  -0.0912419   0.0557480  -0.0253682  )
         2           Au  tau(   2) = (  -0.0455790   0.1055565   0.2146020  )
         3           Au  tau(   3) = (   0.1538096   0.0628944   0.0238763  )
         4           Au  tau(   4) = (   0.2078526   0.1669170   0.2759183  )
         5           Au  tau(   5) = (   0.3844721   0.1035859   0.1156700  )

     number of k points=     1  Marzari-Vanderbilt smearing, width (Ry)=  0.0250
                       cart. coord. in units 2pi/alat
        k(    1) = (   0.0000000   0.0000000   0.0000000), wk =   2.0000000

     Initial potential from superposition of free atoms
     Check: negative starting charge=   -0.006497

     starting charge   54.99940, renormalised to   55.00000

     negative rho (up, down):  6.497E-03 0.000E+00
     Starting wfc are   45 randomized atomic wfcs

     Self-consistent Calculation

     iteration #  1     ecut=    30.00 Ry     beta=0.70
     Davidson diagonalization with overlap
     ethr =  1.00E-02,  avg # of iterations =  3.0

     Threshold (ethr) on eigenvalues was too large:
     Diagonalizing with lowered threshold

     Davidson diagonalization with overlap
     ethr =  4.18E-04,  avg # of iterations =  3.0

     negative rho (up, down):  8.920E-04 0.000E+00

     total energy              =    -329.36930701 Ry
     Harris-Foulkes estimate   =    -329.54349375 Ry
     estimated scf accuracy    <       0.28752821 Ry

[...]

     End of self-consistent calculation

          k = 0.0000 0.0000 0.0000 ( 22119 PWs)   bands (ev):

    -8.5168  -7.8914  -7.6321  -7.1627  -6.9468  -6.8910  -6.8332  -6.5454
    -6.2100  -6.1716  -6.0476  -5.7812  -5.7495  -5.6729  -5.4165  -5.3716
    -5.2928  -5.2688  -5.2217  -5.1677  -5.1596  -5.1309  -4.9943  -4.9296
    -4.9025  -4.6502  -4.4547  -3.7011  -2.5317  -2.2013  -0.5560  -0.1960
     0.5049   0.8620

     the Fermi energy is    -3.6631 ev

!    total energy              =    -329.48358932 Ry
     Harris-Foulkes estimate   =    -329.48358942 Ry
     estimated scf accuracy    <          6.4E-09 Ry

     The total energy is the sum of the following terms:

     one-electron contribution =    -612.21538865 Ry
     hartree contribution      =     327.51844823 Ry
     xc contribution           =     -51.41922982 Ry
     ewald contribution        =       6.63819652 Ry
     smearing contrib. (-TS)   =      -0.00561560 Ry

     convergence has been achieved in  11 iterations

     Forces acting on atoms (Ry/au):

     atom    1 type  1   force =    -0.01050996   -0.00691448   -0.02180785
     atom    2 type  1   force =     0.01749202    0.00812062    0.01761739
     atom    3 type  1   force =     0.00018799    0.00393004    0.00830357
     atom    4 type  1   force =    -0.02946568    0.00117966    0.01196143
     atom    5 type  1   force =     0.02229562   -0.00631584   -0.01607454

     Total force =     0.056645     Total SCF correction =     0.000375

     BFGS Geometry Optimization

     number of scf cycles    =   1
     number of bfgs steps    =   0

     energy   new            =    -329.4835893226 Ry

     new trust radius        =       0.0318228452 bohr
     new conv_thr            =       0.0000000100 Ry

ATOMIC_POSITIONS (bohr)
Au      -1.835347956   1.108045524  -0.529172851
Au      -0.894088975   2.119251621   4.309657393
Au       3.076378988   1.261818038   0.485830573
Au       4.127586323   3.339518662   5.530326428
Au       7.711736621   2.065402156   2.297326457

     Writing output data file pwscf.save
     Check: negative starting charge=   -0.006497
     NEW-OLD atomic charge density approx. for the potential
     Check: negative starting charge=   -0.006478

[...]

     energy   old            =    -329.4835893226 Ry
     energy   new            =    -329.4863222029 Ry

     CASE: energy  _new < energy  _old

[...]

     WARNING: bfgs curvature condition failed, Theta= 0.963
     new trust radius        =       0.0079259158 bohr
     new conv_thr            =            1.0E-10 Ry

[...]

     Threshold (ethr) on eigenvalues was too large:
     Diagonalizing with lowered threshold

     Davidson diagonalization with overlap
     ethr =  5.87E-08,  avg # of iterations =  1.0

[...]

     number of scf cycles    =  29
     number of bfgs steps    =  28

     energy   old            =    -329.4911949329 Ry
     energy   new            =    -329.4912116386 Ry

     CASE: energy  _new < energy  _old

     new trust radius        =       0.0195468188 bohr
     new conv_thr            =            1.0E-10 Ry

ATOMIC_POSITIONS (bohr)
Au      -1.861876158   0.815808165  -0.578052516
Au      -0.838508236   2.491896792   4.203046559
Au       3.024055364   1.379851291   0.605952748
Au       4.094957337   3.151185107   5.647340564
Au       7.767636694   2.055294645   2.215680645

     Writing output data file pwscf.save
     Check: negative starting charge=   -0.006537
     NEW-OLD atomic charge density approx. for the potential
     Check: negative starting charge=   -0.006552

[...]

     Self-consistent Calculation

[...]

     negative rho (up, down):  2.626E-07 0.000E+00

[...]

     total energy              =    -329.49122457 Ry
     Harris-Foulkes estimate   =    -329.49122454 Ry
     estimated scf accuracy    <          2.0E-10 Ry

     iteration # 10     ecut=    30.00 Ry     beta=0.70
     Davidson diagonalization with overlap
     ethr =  3.60E-13,  avg # of iterations =  3.0

     End of self-consistent calculation

          k = 0.0000 0.0000 0.0000 ( 22119 PWs)   bands (ev):

    -8.5151  -7.7930  -7.6603  -7.2446  -6.8499  -6.8172  -6.6231  -6.4903
    -6.3108  -6.0786  -5.9604  -5.7744  -5.7343  -5.6874  -5.4726  -5.3624
    -5.3151  -5.2513  -5.2007  -5.1880  -5.1741  -5.1232  -5.0098  -4.9230
    -4.8365  -4.7446  -4.4781  -3.7803  -2.5222  -2.1934  -0.5792  -0.1980
     0.5013   0.9337

     the Fermi energy is    -3.7479 ev

!    total energy              =    -329.49122460 Ry
     Harris-Foulkes estimate   =    -329.49122457 Ry
     estimated scf accuracy    <          3.4E-11 Ry

     The total energy is the sum of the following terms:

     one-electron contribution =    -610.12108399 Ry
     hartree contribution      =     326.48534990 Ry
     xc contribution           =     -51.40293498 Ry
     ewald contribution        =       5.55177002 Ry
     smearing contrib. (-TS)   =      -0.00432555 Ry

     convergence has been achieved in  10 iterations

     Forces acting on atoms (Ry/au):

     atom    1 type  1   force =     0.00045255    0.00006407   -0.00008890
     atom    2 type  1   force =    -0.00011276    0.00048945    0.00056270
     atom    3 type  1   force =    -0.00038490   -0.00021719   -0.00008863
     atom    4 type  1   force =     0.00059410   -0.00040543   -0.00032695
     atom    5 type  1   force =    -0.00054899    0.00006910   -0.00005822

     Total force =     0.001387     Total SCF correction =     0.000021

     bfgs converged in  30 scf cycles and  29 bfgs steps
     (criteria: energy <  1.0E-04, force <  1.0E-03)

     End of BFGS Geometry Optimization

     Final energy   =    -329.4912245959 Ry
Begin final coordinates

ATOMIC_POSITIONS (bohr)
Au      -1.861876158   0.815808165  -0.578052516
Au      -0.838508236   2.491896792   4.203046559
Au       3.024055364   1.379851291   0.605952748
Au       4.094957337   3.151185107   5.647340564
Au       7.767636694   2.055294645   2.215680645
End final coordinates

     Writing output data file pwscf.save

     General routines

     Parallel routines

   This run was terminated on:  22: 0:48   3Aug2017

   JOB DONE.