     Program PWSCF v.6.0 (svn rev. 13079) starts on  3Aug2017 at 23: 5:35

     Current dimensions of program PWSCF are:
     Max number of different atomic species (ntypx) = 10
     Max number of k-points (npk) =  40000
     Max angular momentum in pseudopotentials (lmaxx) =  3
     Message from routine iosys:
     pot_extrapolation='second-order' not available, using 'atomic'
     Message from routine iosys:
     wfc_extrapolation='second-order' not available, using 'atomic'

     Subspace diagonalization in iterative solution of the eigenvalue problem:
     a serial algorithm will be used

     bravais-lattice index     =            1
     lattice parameter (alat)  =      20.0000  a.u.
     unit-cell volume          =    8000.0000 (a.u.)^3
     number of atoms/cell      =            5
     number of atomic types    =            1
     number of electrons       =        55.00
     number of Kohn-Sham states=           34
     kinetic-energy cutoff     =      30.0000  Ry
     charge density cutoff     =     120.0000  Ry
     convergence threshold     =      1.0E-08
     mixing beta               =       0.7000
     number of iterations used =            8  plain     mixing
     Exchange-correlation      = BLYP ( 1  3  1  3 0 0)
     nstep                     =           50

     celldm(1)=  20.000000  celldm(2)=   0.000000  celldm(3)=   0.000000
     celldm(4)=   0.000000  celldm(5)=   0.000000  celldm(6)=   0.000000

     crystal axes: (cart. coord. in units of alat)
               a(1) = (   1.000000   0.000000   0.000000 )
               a(2) = (   0.000000   1.000000   0.000000 )
               a(3) = (   0.000000   0.000000   1.000000 )

     reciprocal axes: (cart. coord. in units 2 pi/alat)
               b(1) = (  1.000000  0.000000  0.000000 )
               b(2) = (  0.000000  1.000000  0.000000 )
               b(3) = (  0.000000  0.000000  1.000000 )

     PseudoPot. # 1 for Au read from file:
     ./Au.blyp-d-hgh.UPF
     MD5 check sum: c10d8bae01f806c36a1643a1c69a8479
     Pseudo is Norm-conserving, Zval = 11.0
     Generated in analytical, separable form
     Using radial grid of 1279 points,  6 beta functions with:
                l(1) =   0
                l(2) =   0
                l(3) =   1
                l(4) =   1
                l(5) =   2
                l(6) =   2

     atomic species   valence    mass     pseudopotential
        Au            11.00    28.08600     Au( 1.00)

     No symmetry found

   Cartesian axes

     site n.     atom                  positions (alat units)
         1           Au  tau(   1) = (  -0.1258486   0.0783221  -0.0147928  )
         2           Au  tau(   2) = (   0.0052605   0.1080768   0.2037126  )
         3           Au  tau(   3) = (   0.1334719   0.0616525  -0.0063364  )
         4           Au  tau(   4) = (   0.2192159   0.2136163   0.2831165  )
         5           Au  tau(   5) = (   0.3562012   0.0585232   0.1275986  )

     number of k points=     1  Marzari-Vanderbilt smearing, width (Ry)=  0.0250
                       cart. coord. in units 2pi/alat
        k(    1) = (   0.0000000   0.0000000   0.0000000), wk =   2.0000000

     Initial potential from superposition of free atoms
     Check: negative starting charge=   -0.006256

     starting charge   54.99940, renormalised to   55.00000

     negative rho (up, down):  6.256E-03 0.000E+00
     Starting wfc are   45 randomized atomic wfcs

     Self-consistent Calculation

     iteration #  1     ecut=    30.00 Ry     beta=0.70
     Davidson diagonalization with overlap
     ethr =  1.00E-02,  avg # of iterations =  3.0

     Threshold (ethr) on eigenvalues was too large:
     Diagonalizing with lowered threshold

     Davidson diagonalization with overlap
     ethr =  3.83E-04,  avg # of iterations =  7.0

     negative rho (up, down):  8.219E-04 0.000E+00

     total energy              =    -329.36839613 Ry
     Harris-Foulkes estimate   =    -329.52894499 Ry
     estimated scf accuracy    <       0.26926412 Ry

[...]

     End of self-consistent calculation

          k = 0.0000 0.0000 0.0000 ( 22119 PWs)   bands (ev):

    -8.2763  -7.6347  -7.4819  -7.3749  -6.9924  -6.7291  -6.6049  -6.4226
    -6.1976  -5.9498  -5.9423  -5.7345  -5.6648  -5.5675  -5.5304  -5.4975
    -5.2391  -5.2044  -5.1696  -5.1158  -5.1059  -5.0120  -4.9814  -4.9542
    -4.9397  -4.6039  -4.3382  -3.6900  -2.6162  -2.1881  -0.4102  -0.1950
     0.3543   0.6636

     the Fermi energy is    -3.6646 ev

!    total energy              =    -329.47347144 Ry
     Harris-Foulkes estimate   =    -329.47347147 Ry
     estimated scf accuracy    <          9.3E-10 Ry

     The total energy is the sum of the following terms:

     one-electron contribution =    -604.32465701 Ry
     hartree contribution      =     323.68647417 Ry
     xc contribution           =     -51.40075723 Ry
     ewald contribution        =       2.56828721 Ry
     smearing contrib. (-TS)   =      -0.00281858 Ry

     convergence has been achieved in  12 iterations

     Forces acting on atoms (Ry/au):

     atom    1 type  1   force =     0.00801572   -0.00291367   -0.00059113
     atom    2 type  1   force =    -0.01926960    0.00994900    0.01370528
     atom    3 type  1   force =     0.01338011   -0.00588698   -0.01005890
     atom    4 type  1   force =     0.01017983   -0.00547676    0.00282818
     atom    5 type  1   force =    -0.01230607    0.00432841   -0.00588343

     Total force =     0.037316     Total SCF correction =     0.000151

     BFGS Geometry Optimization

     number of scf cycles    =   1
     number of bfgs steps    =   0

     energy   new            =    -329.4734714437 Ry

     new trust radius        =       0.0256541377 bohr
     new conv_thr            =       0.0000000100 Ry

ATOMIC_POSITIONS (bohr)
Au      -2.508955276   1.563528334  -0.296448129
Au       0.085940400   2.171485005   4.087956277
Au       2.682818114   1.227164017  -0.136786897
Au       4.394497831   4.266849238   5.665158182
Au       7.111716932   1.174792406   2.546089567

     Writing output data file pwscf.save
     Check: negative starting charge=   -0.006256
     NEW-OLD atomic charge density approx. for the potential
     Check: negative starting charge=   -0.006241

[...]

     energy   old            =    -329.4734714437 Ry
     energy   new            =    -329.4747321645 Ry

     CASE: energy  _new < energy  _old

     WARNING: bfgs curvature condition failed, Theta= 0.985
     new trust radius        =       0.0282195515 bohr
     new conv_thr            =       0.0000000013 Ry

[...]

     WARNING: bfgs curvature condition failed, Theta= 0.706
     new trust radius        =       0.1095169111 bohr
     new conv_thr            =       0.0000000006 Ry

[...]

     WARNING: info=  8 for Hessian
     new trust radius        =       0.1642753666 bohr
     new conv_thr            =       0.0000000006 Ry

[...]

     iteration #  1     ecut=    30.00 Ry     beta=0.70
     Davidson diagonalization with overlap
     c_bands:  1 eigenvalues not converged
     ethr =  1.00E-06,  avg # of iterations = 20.0

[...]

     WARNING: info=  9 for Hessian
     new trust radius        =       0.0842397144 bohr
     new conv_thr            =       0.0000000001 Ry

[...]

     CASE: energy  _new > energy  _old

[...]

     WARNING: info= 10 for Hessian
     uphill step: resetting bfgs history

[...]

     Threshold (ethr) on eigenvalues was too large:
     Diagonalizing with lowered threshold

     Davidson diagonalization with overlap
     ethr =  8.57E-08,  avg # of iterations =  1.0

[...]

     Self-consistent Calculation

[...]

     total energy              =    -329.49126409 Ry
     Harris-Foulkes estimate   =    -329.49126412 Ry
     estimated scf accuracy    <          8.2E-10 Ry

     iteration # 10     ecut=    30.00 Ry     beta=0.70
     Davidson diagonalization with overlap
     ethr =  1.49E-12,  avg # of iterations =  2.0

     End of self-consistent calculation

          k = 0.0000 0.0000 0.0000 ( 22119 PWs)   bands (ev):

    -8.4830  -7.7625  -7.6470  -7.2285  -6.8617  -6.8004  -6.5898  -6.4773
    -6.3093  -6.0664  -5.9494  -5.7601  -5.7215  -5.6805  -5.4622  -5.3684
    -5.3188  -5.2473  -5.2022  -5.1941  -5.1660  -5.1291  -5.0065  -4.9230
    -4.8626  -4.7220  -4.4864  -3.7855  -2.5085  -2.2061  -0.5621  -0.1898
     0.4847   0.9007

     the Fermi energy is    -3.7531 ev

!    total energy              =    -329.49126412 Ry
     Harris-Foulkes estimate   =    -329.49126409 Ry
     estimated scf accuracy    <          7.9E-11 Ry

     The total energy is the sum of the following terms:

     one-electron contribution =    -607.89403203 Ry
     hartree contribution      =     325.38090779 Ry
     xc contribution           =     -51.39610623 Ry
     ewald contribution        =       4.42226374 Ry
     smearing contrib. (-TS)   =      -0.00429738 Ry

     convergence has been achieved in  10 iterations

     Forces acting on atoms (Ry/au):

     atom    1 type  1   force =     0.00341029   -0.00049405    0.00254753
     atom    2 type  1   force =     0.00007349    0.00004953   -0.00153132
     atom    3 type  1   force =    -0.00077232   -0.00038740   -0.00008023
     atom    4 type  1   force =     0.00082326   -0.00021935   -0.00258005
     atom    5 type  1   force =    -0.00353472    0.00105127    0.00164407

     Total force =     0.006720     Total SCF correction =     0.000046

     number of scf cycles    =  50
     number of bfgs steps    =  48

     energy   old            =    -329.4911738341 Ry
     energy   new            =    -329.4912641158 Ry

     CASE: energy  _new < energy  _old

     new trust radius        =       0.0149814001 bohr
     new conv_thr            =            1.0E-10 Ry

ATOMIC_POSITIONS (bohr)
Au      -1.947699837   1.353831574  -0.802067611
Au      -0.846440841   3.198721547   3.908538608
Au       2.915088805   1.228430709   0.643812416
Au       4.038413473   3.290452331   5.639197090
Au       7.606656401   1.332382839   2.476488496

     Writing output data file pwscf.save
     Check: negative starting charge=   -0.006494
     NEW-OLD atomic charge density approx. for the potential
     Check: negative starting charge=   -0.006493

     negative rho (up, down):  2.159E-05 0.000E+00

     Writing output data file pwscf.save

     General routines

     Parallel routines

   This run was terminated on:  23: 7:50   3Aug2017

   JOB DONE.