     Program PWSCF v.6.0 (svn rev. 13079) starts on  3Aug2017 at 21:55:31

     Current dimensions of program PWSCF are:
     Max number of different atomic species (ntypx) = 10
     Max number of k-points (npk) =  40000
     Max angular momentum in pseudopotentials (lmaxx) =  3
     Message from routine iosys:
     pot_extrapolation='second-order' not available, using 'atomic'
     Message from routine iosys:
     wfc_extrapolation='second-order' not available, using 'atomic'

     Subspace diagonalization in iterative solution of the eigenvalue problem:
     a serial algorithm will be used

     bravais-lattice index     =            1
     lattice parameter (alat)  =      20.0000  a.u.
     unit-cell volume          =    8000.0000 (a.u.)^3
     number of atoms/cell      =            5
     number of atomic types    =            1
     number of electrons       =        55.00
     number of Kohn-Sham states=           34
     kinetic-energy cutoff     =      30.0000  Ry
     charge density cutoff     =     120.0000  Ry
     convergence threshold     =      1.0E-08
     mixing beta               =       0.7000
     number of iterations used =            8  plain     mixing
     Exchange-correlation      = BLYP ( 1  3  1  3 0 0)
     nstep                     =           50

     celldm(1)=  20.000000  celldm(2)=   0.000000  celldm(3)=   0.000000
     celldm(4)=   0.000000  celldm(5)=   0.000000  celldm(6)=   0.000000

     crystal axes: (cart. coord. in units of alat)
               a(1) = (   1.000000   0.000000   0.000000 )
               a(2) = (   0.000000   1.000000   0.000000 )
               a(3) = (   0.000000   0.000000   1.000000 )

     reciprocal axes: (cart. coord. in units 2 pi/alat)
               b(1) = (  1.000000  0.000000  0.000000 )
               b(2) = (  0.000000  1.000000  0.000000 )
               b(3) = (  0.000000  0.000000  1.000000 )

     PseudoPot. # 1 for Au read from file:
     ./Au.blyp-d-hgh.UPF
     MD5 check sum: c10d8bae01f806c36a1643a1c69a8479
     Pseudo is Norm-conserving, Zval = 11.0
     Generated in analytical, separable form
     Using radial grid of 1279 points,  6 beta functions with:
                l(1) =   0
                l(2) =   0
                l(3) =   1
                l(4) =   1
                l(5) =   2
                l(6) =   2

     atomic species   valence    mass     pseudopotential
        Au            11.00    28.08600     Au( 1.00)

     No symmetry found

   Cartesian axes

     site n.     atom                  positions (alat units)
         1           Au  tau(   1) = (  -0.0974771   0.1087371  -0.0319984  )
         2           Au  tau(   2) = (  -0.0188317   0.1531255   0.2237452  )
         3           Au  tau(   3) = (   0.1476892   0.0940271   0.0224828  )
         4           Au  tau(   4) = (   0.2262021   0.1975399   0.2778508  )
         5           Au  tau(   5) = (   0.3779711   0.0636876   0.1212884  )

     number of k points=     1  Marzari-Vanderbilt smearing, width (Ry)=  0.0250
                       cart. coord. in units 2pi/alat
        k(    1) = (   0.0000000   0.0000000   0.0000000), wk =   2.0000000

     Initial potential from superposition of free atoms
     Check: negative starting charge=   -0.006360

     starting charge   54.99940, renormalised to   55.00000

     negative rho (up, down):  6.360E-03 0.000E+00
     Starting wfc are   45 randomized atomic wfcs

     Self-consistent Calculation

     iteration #  1     ecut=    30.00 Ry     beta=0.70
     Davidson diagonalization with overlap
     ethr =  1.00E-02,  avg # of iterations =  3.0

     Threshold (ethr) on eigenvalues was too large:
     Diagonalizing with lowered threshold

     Davidson diagonalization with overlap
     ethr =  4.01E-04,  avg # of iterations =  7.0

     negative rho (up, down):  8.741E-04 0.000E+00

     total energy              =    -329.37584183 Ry
     Harris-Foulkes estimate   =    -329.54266489 Ry
     estimated scf accuracy    <       0.27797073 Ry

[...]

     End of self-consistent calculation

          k = 0.0000 0.0000 0.0000 ( 22119 PWs)   bands (ev):

    -8.3932  -7.6770  -7.6014  -7.1754  -7.0080  -6.7490  -6.5509  -6.4342
    -6.1787  -6.0042  -5.9541  -5.7388  -5.7268  -5.6523  -5.4316  -5.3684
    -5.3108  -5.2441  -5.2095  -5.1988  -5.1464  -5.1338  -4.9662  -4.9447
    -4.8729  -4.6265  -4.4808  -3.8049  -2.4618  -2.2825  -0.4923  -0.2195
     0.4620   0.7216

     the Fermi energy is    -3.7798 ev

!    total energy              =    -329.48531453 Ry
     Harris-Foulkes estimate   =    -329.48531459 Ry
     estimated scf accuracy    <          8.5E-09 Ry

     The total energy is the sum of the following terms:

     one-electron contribution =    -605.30125761 Ry
     hartree contribution      =     324.12578059 Ry
     xc contribution           =     -51.39082017 Ry
     ewald contribution        =       3.08348266 Ry
     smearing contrib. (-TS)   =      -0.00250001 Ry

     convergence has been achieved in  12 iterations

     Forces acting on atoms (Ry/au):

     atom    1 type  1   force =     0.00324445    0.00268357    0.01212528
     atom    2 type  1   force =    -0.00688221   -0.00041473   -0.01892892
     atom    3 type  1   force =    -0.00079732    0.00089541    0.00845208
     atom    4 type  1   force =     0.00295675   -0.00547301   -0.00164000
     atom    5 type  1   force =     0.00147833    0.00230876   -0.00000844

     Total force =     0.026313     Total SCF correction =     0.000271

     BFGS Geometry Optimization

     number of scf cycles    =   1
     number of bfgs steps    =   0

     energy   new            =    -329.4853145281 Ry

     new trust radius        =       0.0201454883 bohr
     new conv_thr            =       0.0000000100 Ry

ATOMIC_POSITIONS (bohr)
Au      -1.946297550   2.177424566  -0.627842721
Au      -0.383516213   3.062096269   4.455974085
Au       2.952986684   1.881437410   0.458108083
Au       4.526999755   3.945324991   5.555375998
Au       7.560899325   1.276060765   2.425759556

     Writing output data file pwscf.save
     Check: negative starting charge=   -0.006360
     NEW-OLD atomic charge density approx. for the potential
     Check: negative starting charge=   -0.006369

[...]

     energy   old            =    -329.4853145281 Ry
     energy   new            =    -329.4859536870 Ry

     CASE: energy  _new < energy  _old

     WARNING: bfgs curvature condition failed, Theta= 0.944
     new trust radius        =       0.0221600371 bohr
     new conv_thr            =       0.0000000006 Ry

[...]

     WARNING: bfgs curvature condition failed, Theta= 0.738
     new trust radius        =       0.0492415541 bohr
     new conv_thr            =            1.0E-10 Ry

[...]

     WARNING: info= 13 for Hessian
     new trust radius        =       0.0070375003 bohr
     new conv_thr            =            1.0E-10 Ry

[...]

     WARNING: info= 14 for Hessian
     new trust radius        =       0.0003810447 bohr
     new conv_thr            =            1.0E-10 Ry

[...]

     CASE: energy  _new > energy  _old

     new trust radius        =       0.0000554369 bohr

     trust_radius < trust_radius_min

     resetting bfgs history

     new conv_thr            =            1.0E-10 Ry

[...]

     Threshold (ethr) on eigenvalues was too large:
     Diagonalizing with lowered threshold

     Davidson diagonalization with overlap
     ethr =  5.93E-08,  avg # of iterations =  1.0

[...]

     Self-consistent Calculation

[...]

     total energy              =    -329.49144897 Ry
     Harris-Foulkes estimate   =    -329.49144898 Ry
     estimated scf accuracy    <          9.0E-10 Ry

     iteration # 10     ecut=    30.00 Ry     beta=0.70
     Davidson diagonalization with overlap
     ethr =  1.63E-12,  avg # of iterations =  2.0

     End of self-consistent calculation

          k = 0.0000 0.0000 0.0000 ( 22119 PWs)   bands (ev):

    -8.5024  -7.7807  -7.6402  -7.2295  -6.8709  -6.8097  -6.6358  -6.4726
    -6.3002  -6.0624  -5.9700  -5.7701  -5.7317  -5.6851  -5.4452  -5.3737
    -5.3129  -5.2393  -5.2001  -5.1798  -5.1747  -5.1263  -4.9983  -4.9215
    -4.8430  -4.7289  -4.4676  -3.7845  -2.4987  -2.1857  -0.5550  -0.2054
     0.5382   0.8469

     the Fermi energy is    -3.7541 ev

!    total energy              =    -329.49144900 Ry
     Harris-Foulkes estimate   =    -329.49144897 Ry
     estimated scf accuracy    <          5.7E-11 Ry

     The total energy is the sum of the following terms:

     one-electron contribution =    -609.21269956 Ry
     hartree contribution      =     326.04182173 Ry
     xc contribution           =     -51.40348971 Ry
     ewald contribution        =       5.08676931 Ry
     smearing contrib. (-TS)   =      -0.00385077 Ry

     convergence has been achieved in  10 iterations

     Forces acting on atoms (Ry/au):

     atom    1 type  1   force =    -0.00146163    0.00032966   -0.00025386
     atom    2 type  1   force =    -0.00025327    0.00046699   -0.00088686
     atom    3 type  1   force =    -0.00025367   -0.00008195    0.00145224
     atom    4 type  1   force =     0.00044319   -0.00048504   -0.00110805
     atom    5 type  1   force =     0.00152538   -0.00022966    0.00079654

     Total force =     0.003199     Total SCF correction =     0.000038

     number of scf cycles    =  50
     number of bfgs steps    =  48

     energy   old            =    -329.4914185729 Ry
     energy   new            =    -329.4914489982 Ry

     CASE: energy  _new < energy  _old

     new trust radius        =       0.0107610073 bohr
     new conv_thr            =            1.0E-10 Ry

ATOMIC_POSITIONS (bohr)
Au      -1.847373332   2.165047230  -0.580074652
Au      -0.593553585   3.635730208   4.204042588
Au       3.020983882   1.671728589   0.644728957
Au       4.389423476   3.543396834   5.602800134
Au       7.741591558   1.326441140   2.395877972

     Writing output data file pwscf.save
     Check: negative starting charge=   -0.006452
     NEW-OLD atomic charge density approx. for the potential
     Check: negative starting charge=   -0.006450

     negative rho (up, down):  6.896E-06 0.000E+00

     Writing output data file pwscf.save

     General routines

     Parallel routines

   This run was terminated on:  21:57:34   3Aug2017

   JOB DONE.