     Program PWSCF v.6.0 (svn rev. 13079) starts on  4Aug2017 at  1:27: 0

     Current dimensions of program PWSCF are:
     Max number of different atomic species (ntypx) = 10
     Max number of k-points (npk) =  40000
     Max angular momentum in pseudopotentials (lmaxx) =  3
     Message from routine iosys:
     pot_extrapolation='second-order' not available, using 'atomic'
     Message from routine iosys:
     wfc_extrapolation='second-order' not available, using 'atomic'

     Subspace diagonalization in iterative solution of the eigenvalue problem:
     a serial algorithm will be used

     bravais-lattice index     =            1
     lattice parameter (alat)  =      20.0000  a.u.
     unit-cell volume          =    8000.0000 (a.u.)^3
     number of atoms/cell      =            5
     number of atomic types    =            1
     number of electrons       =        55.00
     number of Kohn-Sham states=           34
     kinetic-energy cutoff     =      30.0000  Ry
     charge density cutoff     =     120.0000  Ry
     convergence threshold     =      1.0E-08
     mixing beta               =       0.7000
     number of iterations used =            8  plain     mixing
     Exchange-correlation      = BLYP ( 1  3  1  3 0 0)
     nstep                     =           50

     celldm(1)=  20.000000  celldm(2)=   0.000000  celldm(3)=   0.000000
     celldm(4)=   0.000000  celldm(5)=   0.000000  celldm(6)=   0.000000

     crystal axes: (cart. coord. in units of alat)
               a(1) = (   1.000000   0.000000   0.000000 )
               a(2) = (   0.000000   1.000000   0.000000 )
               a(3) = (   0.000000   0.000000   1.000000 )

     reciprocal axes: (cart. coord. in units 2 pi/alat)
               b(1) = (  1.000000  0.000000  0.000000 )
               b(2) = (  0.000000  1.000000  0.000000 )
               b(3) = (  0.000000  0.000000  1.000000 )

     PseudoPot. # 1 for Au read from file:
     ./Au.blyp-d-hgh.UPF
     MD5 check sum: c10d8bae01f806c36a1643a1c69a8479
     Pseudo is Norm-conserving, Zval = 11.0
     Generated in analytical, separable form
     Using radial grid of 1279 points,  6 beta functions with:
                l(1) =   0
                l(2) =   0
                l(3) =   1
                l(4) =   1
                l(5) =   2
                l(6) =   2

     atomic species   valence    mass     pseudopotential
        Au            11.00    28.08600     Au( 1.00)

     No symmetry found

   Cartesian axes

     site n.     atom                  positions (alat units)
         1           Au  tau(   1) = (  -0.1044817   0.0673779  -0.0178812  )
         2           Au  tau(   2) = (   0.0119678   0.1230398   0.2112735  )
         3           Au  tau(   3) = (   0.1395322   0.0885424   0.0012388  )
         4           Au  tau(   4) = (   0.2257682   0.2379244   0.3005558  )
         5           Au  tau(   5) = (   0.3327009   0.0573287   0.1434384  )

     number of k points=     1  Marzari-Vanderbilt smearing, width (Ry)=  0.0250
                       cart. coord. in units 2pi/alat
        k(    1) = (   0.0000000   0.0000000   0.0000000), wk =   2.0000000

     Initial potential from superposition of free atoms
     Check: negative starting charge=   -0.006363

     starting charge   54.99940, renormalised to   55.00000

     negative rho (up, down):  6.363E-03 0.000E+00
     Starting wfc are   45 randomized atomic wfcs

     Self-consistent Calculation

     iteration #  1     ecut=    30.00 Ry     beta=0.70
     Davidson diagonalization with overlap
     ethr =  1.00E-02,  avg # of iterations =  3.0

     Threshold (ethr) on eigenvalues was too large:
     Diagonalizing with lowered threshold

     Davidson diagonalization with overlap
     ethr =  4.02E-04,  avg # of iterations =  8.0

     negative rho (up, down):  8.433E-04 0.000E+00

     total energy              =    -329.35465465 Ry
     Harris-Foulkes estimate   =    -329.51960859 Ry
     estimated scf accuracy    <       0.27704738 Ry

[...]

     End of self-consistent calculation

          k = 0.0000 0.0000 0.0000 ( 22119 PWs)   bands (ev):

    -8.4829  -7.8842  -7.7311  -7.3084  -6.9441  -6.8971  -6.7037  -6.4565
    -6.2731  -5.9781  -5.8506  -5.7957  -5.7191  -5.5747  -5.5411  -5.4859
    -5.2298  -5.1850  -5.1612  -5.1299  -5.1155  -5.0083  -4.9513  -4.8781
    -4.7897  -4.5533  -4.2865  -3.6822  -2.4857  -2.1661  -0.3815  -0.1513
     0.3943   0.5400

     the Fermi energy is    -3.6654 ev

!    total energy              =    -329.46296955 Ry
     Harris-Foulkes estimate   =    -329.46296953 Ry
     estimated scf accuracy    <          9.3E-09 Ry

     The total energy is the sum of the following terms:

     one-electron contribution =    -613.09589830 Ry
     hartree contribution      =     328.05640025 Ry
     xc contribution           =     -51.44681141 Ry
     ewald contribution        =       7.02437376 Ry
     smearing contrib. (-TS)   =      -0.00103385 Ry

     convergence has been achieved in  11 iterations

     Forces acting on atoms (Ry/au):

     atom    1 type  1   force =    -0.02583295    0.00035203    0.00325325
     atom    2 type  1   force =    -0.01375036    0.01272326    0.01768758
     atom    3 type  1   force =     0.00837543   -0.00372199   -0.04506337
     atom    4 type  1   force =    -0.00376485   -0.01455471   -0.00216622
     atom    5 type  1   force =     0.03497274    0.00520141    0.02628876

     Total force =     0.075023     Total SCF correction =     0.000395

     BFGS Geometry Optimization

     number of scf cycles    =   1
     number of bfgs steps    =   0

     energy   new            =    -329.4629695505 Ry

     new trust radius        =       0.0459859581 bohr
     new conv_thr            =       0.0000000100 Ry

ATOMIC_POSITIONS (bohr)
Au      -2.115466948   1.347911031  -0.354369745
Au       0.225604638   2.473518256   4.243156584
Au       2.799020428   1.767126015  -0.020287371
Au       4.511599147   4.743933291   6.008949776
Au       6.688991736   1.151774407   2.895057756

     Writing output data file pwscf.save
     Check: negative starting charge=   -0.006363
     NEW-OLD atomic charge density approx. for the potential
     Check: negative starting charge=   -0.006325

[...]

     energy   old            =    -329.4629695505 Ry
     energy   new            =    -329.4676692579 Ry

     CASE: energy  _new < energy  _old

[...]

     iteration #  1     ecut=    30.00 Ry     beta=0.70
     Davidson diagonalization with overlap
     c_bands:  1 eigenvalues not converged
     ethr =  1.00E-06,  avg # of iterations = 20.0

[...]

     WARNING: bfgs curvature condition failed, Theta= 0.327
     new trust radius        =       0.0437955660 bohr
     new conv_thr            =            1.0E-10 Ry

[...]

     WARNING: bfgs curvature condition failed, Theta= 0.622
     uphill step: resetting bfgs history

[...]

     Threshold (ethr) on eigenvalues was too large:
     Diagonalizing with lowered threshold

     Davidson diagonalization with overlap
     ethr =  4.96E-08,  avg # of iterations =  1.0

[...]

     WARNING: bfgs curvature condition failed, Theta= 0.523
     new trust radius        =       0.1146579766 bohr
     new conv_thr            =       0.0000000006 Ry

[...]

     Self-consistent Calculation

[...]

     total energy              =    -329.49020746 Ry
     Harris-Foulkes estimate   =    -329.49020747 Ry
     estimated scf accuracy    <          4.5E-10 Ry

     iteration # 10     ecut=    30.00 Ry     beta=0.70
     Davidson diagonalization with overlap
     ethr =  8.24E-13,  avg # of iterations =  2.0

     End of self-consistent calculation

          k = 0.0000 0.0000 0.0000 ( 22119 PWs)   bands (ev):

    -8.4444  -7.7311  -7.6835  -7.2968  -7.0936  -6.7795  -6.5584  -6.4831
    -6.3815  -6.0137  -5.9832  -5.7493  -5.7057  -5.6646  -5.4063  -5.3588
    -5.3507  -5.2385  -5.2178  -5.1968  -5.1613  -5.1210  -5.0032  -4.9531
    -4.8842  -4.5816  -4.4945  -3.7538  -2.4778  -2.1394  -0.5267  -0.2240
     0.3795   0.7755

     the Fermi energy is    -3.7206 ev

!    total energy              =    -329.49020746 Ry
     Harris-Foulkes estimate   =    -329.49020746 Ry
     estimated scf accuracy    <          7.3E-11 Ry

     The total energy is the sum of the following terms:

     one-electron contribution =    -605.28812099 Ry
     hartree contribution      =     324.07655666 Ry
     xc contribution           =     -51.40399506 Ry
     ewald contribution        =       3.12970454 Ry
     smearing contrib. (-TS)   =      -0.00435260 Ry

     convergence has been achieved in  10 iterations

     Forces acting on atoms (Ry/au):

     atom    1 type  1   force =    -0.00148270   -0.00072293   -0.00361561
     atom    2 type  1   force =     0.00932902    0.00457506    0.01037325
     atom    3 type  1   force =    -0.00314328   -0.00489487   -0.00902545
     atom    4 type  1   force =    -0.00575396   -0.00000161   -0.00325987
     atom    5 type  1   force =     0.00105092    0.00104435    0.00552767

     Total force =     0.020570     Total SCF correction =     0.000029

     number of scf cycles    =  50
     number of bfgs steps    =  49

     energy   old            =    -329.4901274986 Ry
     energy   new            =    -329.4902074624 Ry

     CASE: energy  _new < energy  _old

     new trust radius        =       0.0188472411 bohr
     new conv_thr            =            1.0E-10 Ry

ATOMIC_POSITIONS (bohr)
Au      -2.257779809   1.487308500  -0.163845038
Au       0.746437720   3.300904412   3.487231655
Au       2.797611749   0.459482111  -0.348693905
Au       4.418621215   4.453688873   6.829548492
Au       6.404858125   1.782879104   2.968265796

     Writing output data file pwscf.save
     Check: negative starting charge=   -0.006239
     NEW-OLD atomic charge density approx. for the potential
     Check: negative starting charge=   -0.006242

     negative rho (up, down):  3.981E-05 0.000E+00

     Writing output data file pwscf.save

     General routines

     Parallel routines

   This run was terminated on:   1:29:15   4Aug2017

   JOB DONE.