     Program PWSCF v.6.0 (svn rev. 13079) starts on  3Aug2017 at 14: 0:57

     Current dimensions of program PWSCF are:
     Max number of different atomic species (ntypx) = 10
     Max number of k-points (npk) =  40000
     Max angular momentum in pseudopotentials (lmaxx) =  3
     Message from routine iosys:
     pot_extrapolation='second-order' not available, using 'atomic'
     Message from routine iosys:
     wfc_extrapolation='second-order' not available, using 'atomic'

     Subspace diagonalization in iterative solution of the eigenvalue problem:
     a serial algorithm will be used

     bravais-lattice index     =            1
     lattice parameter (alat)  =      20.0000  a.u.
     unit-cell volume          =    8000.0000 (a.u.)^3
     number of atoms/cell      =            5
     number of atomic types    =            1
     number of electrons       =        55.00
     number of Kohn-Sham states=           34
     kinetic-energy cutoff     =      30.0000  Ry
     charge density cutoff     =     120.0000  Ry
     convergence threshold     =      1.0E-08
     mixing beta               =       0.7000
     number of iterations used =            8  plain     mixing
     Exchange-correlation      = BLYP ( 1  3  1  3 0 0)
     nstep                     =           50

     celldm(1)=  20.000000  celldm(2)=   0.000000  celldm(3)=   0.000000
     celldm(4)=   0.000000  celldm(5)=   0.000000  celldm(6)=   0.000000

     crystal axes: (cart. coord. in units of alat)
               a(1) = (   1.000000   0.000000   0.000000 )
               a(2) = (   0.000000   1.000000   0.000000 )
               a(3) = (   0.000000   0.000000   1.000000 )

     reciprocal axes: (cart. coord. in units 2 pi/alat)
               b(1) = (  1.000000  0.000000  0.000000 )
               b(2) = (  0.000000  1.000000  0.000000 )
               b(3) = (  0.000000  0.000000  1.000000 )

     PseudoPot. # 1 for Au read from file:
     ./Au.blyp-d-hgh.UPF
     MD5 check sum: c10d8bae01f806c36a1643a1c69a8479
     Pseudo is Norm-conserving, Zval = 11.0
     Generated in analytical, separable form
     Using radial grid of 1279 points,  6 beta functions with:
                l(1) =   0
                l(2) =   0
                l(3) =   1
                l(4) =   1
                l(5) =   2
                l(6) =   2

     atomic species   valence    mass     pseudopotential
        Au            11.00    28.08600     Au( 1.00)

     No symmetry found

   Cartesian axes

     site n.     atom                  positions (alat units)
         1           Au  tau(   1) = (  -0.0821832   0.0937206  -0.0361109  )
         2           Au  tau(   2) = (  -0.0438802   0.1825432   0.1915555  )
         3           Au  tau(   3) = (   0.1579766   0.0655976   0.0326391  )
         4           Au  tau(   4) = (   0.2128219   0.2011534   0.2657944  )
         5           Au  tau(   5) = (   0.3792006   0.0614726   0.1497495  )

     number of k points=     1  Marzari-Vanderbilt smearing, width (Ry)=  0.0250
                       cart. coord. in units 2pi/alat
        k(    1) = (   0.0000000   0.0000000   0.0000000), wk =   2.0000000

     Initial potential from superposition of free atoms
     Check: negative starting charge=   -0.006383

     starting charge   54.99940, renormalised to   55.00000

     negative rho (up, down):  6.383E-03 0.000E+00
     Starting wfc are   45 randomized atomic wfcs

     Self-consistent Calculation

     iteration #  1     ecut=    30.00 Ry     beta=0.70
     Davidson diagonalization with overlap
     ethr =  1.00E-02,  avg # of iterations =  4.0

     Threshold (ethr) on eigenvalues was too large:
     Diagonalizing with lowered threshold

     Davidson diagonalization with overlap
     ethr =  4.22E-04,  avg # of iterations =  3.0

     negative rho (up, down):  8.551E-04 0.000E+00

     total energy              =    -329.36815220 Ry
     Harris-Foulkes estimate   =    -329.54365097 Ry
     estimated scf accuracy    <       0.28928161 Ry

[...]

     End of self-consistent calculation

          k = 0.0000 0.0000 0.0000 ( 22119 PWs)   bands (ev):

    -8.5170  -7.9060  -7.6519  -7.1632  -6.9820  -6.9056  -6.8319  -6.5536
    -6.2034  -6.1919  -6.0405  -5.7695  -5.7483  -5.6784  -5.4028  -5.3686
    -5.2969  -5.2667  -5.2163  -5.1610  -5.1481  -5.1214  -4.9936  -4.9333
    -4.8952  -4.6229  -4.4460  -3.6821  -2.4918  -2.1866  -0.5240  -0.1524
     0.5156   0.6990

     the Fermi energy is    -3.6434 ev

!    total energy              =    -329.48336572 Ry
     Harris-Foulkes estimate   =    -329.48336582 Ry
     estimated scf accuracy    <          7.1E-09 Ry

     The total energy is the sum of the following terms:

     one-electron contribution =    -611.20589737 Ry
     hartree contribution      =     327.01607321 Ry
     xc contribution           =     -51.42195305 Ry
     ewald contribution        =       6.13418541 Ry
     smearing contrib. (-TS)   =      -0.00577394 Ry

     convergence has been achieved in  11 iterations

     Forces acting on atoms (Ry/au):

     atom    1 type  1   force =    -0.00745337   -0.00856688   -0.02494657
     atom    2 type  1   force =     0.01908127    0.00974294    0.02221216
     atom    3 type  1   force =    -0.00652340    0.00333638    0.00302486
     atom    4 type  1   force =    -0.03065970    0.01253476    0.00952411
     atom    5 type  1   force =     0.02555519   -0.01704720   -0.00981456

     Total force =     0.063201     Total SCF correction =     0.000407

     BFGS Geometry Optimization

     number of scf cycles    =   1
     number of bfgs steps    =   0

     energy   new            =    -329.4833657232 Ry

     new trust radius        =       0.0344651378 bohr
     new conv_thr            =       0.0000000100 Ry

ATOMIC_POSITIONS (bohr)
Au      -1.651117370   1.865845122  -0.747164571
Au      -0.858523727   3.660606940   3.853323160
Au       3.153008600   1.315287379   0.655806861
Au       4.225778303   4.035601756   5.325411105
Au       7.609567194   1.212404802   2.985175445

     Writing output data file pwscf.save
     Check: negative starting charge=   -0.006383
     NEW-OLD atomic charge density approx. for the potential
     Check: negative starting charge=   -0.006347

[...]

     energy   old            =    -329.4833657232 Ry
     energy   new            =    -329.4867031380 Ry

     CASE: energy  _new < energy  _old

[...]

     WARNING: bfgs curvature condition failed, Theta= 0.629
     new trust radius        =       0.0299137780 bohr
     new conv_thr            =            1.0E-10 Ry

[...]

     WARNING: info= 12 for Hessian
     new trust radius        =       0.0448706670 bohr
     new conv_thr            =            1.0E-10 Ry

[...]

     CASE: energy  _new > energy  _old

[...]

     WARNING: info= 12 for Hessian
     uphill step: resetting bfgs history

[...]

     WARNING: bfgs curvature condition failed, Theta= 0.929
     new trust radius        =       0.0046516661 bohr
     new conv_thr            =            1.0E-10 Ry

[...]

     Self-consistent Calculation

[...]

     Threshold (ethr) on eigenvalues was too large:
     Diagonalizing with lowered threshold

     Davidson diagonalization with overlap
     ethr =  3.54E-08,  avg # of iterations =  1.0

[...]

     total energy              =    -329.49286865 Ry
     Harris-Foulkes estimate   =    -329.49286865 Ry
     estimated scf accuracy    <          3.3E-10 Ry

     iteration #  9     ecut=    30.00 Ry     beta=0.70
     Davidson diagonalization with overlap
     ethr =  5.94E-13,  avg # of iterations =  3.0

     End of self-consistent calculation

          k = 0.0000 0.0000 0.0000 ( 22119 PWs)   bands (ev):

    -8.5120  -7.7840  -7.6475  -7.2317  -6.8517  -6.8160  -6.6224  -6.4805
    -6.3042  -6.0753  -5.9619  -5.7716  -5.7302  -5.6860  -5.4568  -5.3592
    -5.3118  -5.2459  -5.1962  -5.1815  -5.1688  -5.1234  -4.9990  -4.9199
    -4.8384  -4.7308  -4.4776  -3.7753  -2.4574  -2.1944  -0.5360  -0.1692
     0.4961   0.8163

     the Fermi energy is    -3.7425 ev

!    total energy              =    -329.49286868 Ry
     Harris-Foulkes estimate   =    -329.49286865 Ry
     estimated scf accuracy    <          3.6E-11 Ry

     The total energy is the sum of the following terms:

     one-electron contribution =    -607.30503479 Ry
     hartree contribution      =     325.08549774 Ry
     xc contribution           =     -51.40014284 Ry
     ewald contribution        =       4.13122187 Ry
     smearing contrib. (-TS)   =      -0.00441065 Ry

     convergence has been achieved in   9 iterations

     Forces acting on atoms (Ry/au):

     atom    1 type  1   force =     0.00042956   -0.00023516   -0.00066442
     atom    2 type  1   force =     0.00033627    0.00033715   -0.00010879
     atom    3 type  1   force =    -0.00012078   -0.00016038    0.00049740
     atom    4 type  1   force =    -0.00107056    0.00077275   -0.00034557
     atom    5 type  1   force =     0.00042551   -0.00071436    0.00062138

     Total force =     0.002037     Total SCF correction =     0.000032

     number of scf cycles    =  50
     number of bfgs steps    =  48

     energy   old            =    -329.4928587994 Ry
     energy   new            =    -329.4928686798 Ry

     CASE: energy  _new < energy  _old

     new trust radius        =       0.0091815442 bohr
     new conv_thr            =            1.0E-10 Ry

ATOMIC_POSITIONS (bohr)
Au      -1.696240869   1.761366413  -0.862944807
Au      -0.626193351   4.163691404   3.583169071
Au       3.036777249   1.304897834   0.840062117
Au       4.146196898   3.794590832   5.580307078
Au       7.618173073   1.065199517   2.931958541

     Writing output data file pwscf.save
     Check: negative starting charge=   -0.006342
     NEW-OLD atomic charge density approx. for the potential
     Check: negative starting charge=   -0.006343

     negative rho (up, down):  4.355E-06 0.000E+00

     Writing output data file pwscf.save

     General routines

     Parallel routines

   This run was terminated on:  14: 3:39   3Aug2017

   JOB DONE.