     Program PWSCF v.6.0 (svn rev. 13079) starts on  3Aug2017 at 22:33:30

     Current dimensions of program PWSCF are:
     Max number of different atomic species (ntypx) = 10
     Max number of k-points (npk) =  40000
     Max angular momentum in pseudopotentials (lmaxx) =  3
     Message from routine iosys:
     pot_extrapolation='second-order' not available, using 'atomic'
     Message from routine iosys:
     wfc_extrapolation='second-order' not available, using 'atomic'

     Subspace diagonalization in iterative solution of the eigenvalue problem:
     a serial algorithm will be used

     bravais-lattice index     =            1
     lattice parameter (alat)  =      20.0000  a.u.
     unit-cell volume          =    8000.0000 (a.u.)^3
     number of atoms/cell      =            5
     number of atomic types    =            1
     number of electrons       =        55.00
     number of Kohn-Sham states=           34
     kinetic-energy cutoff     =      30.0000  Ry
     charge density cutoff     =     120.0000  Ry
     convergence threshold     =      1.0E-08
     mixing beta               =       0.7000
     number of iterations used =            8  plain     mixing
     Exchange-correlation      = BLYP ( 1  3  1  3 0 0)
     nstep                     =           50

     celldm(1)=  20.000000  celldm(2)=   0.000000  celldm(3)=   0.000000
     celldm(4)=   0.000000  celldm(5)=   0.000000  celldm(6)=   0.000000

     crystal axes: (cart. coord. in units of alat)
               a(1) = (   1.000000   0.000000   0.000000 )
               a(2) = (   0.000000   1.000000   0.000000 )
               a(3) = (   0.000000   0.000000   1.000000 )

     reciprocal axes: (cart. coord. in units 2 pi/alat)
               b(1) = (  1.000000  0.000000  0.000000 )
               b(2) = (  0.000000  1.000000  0.000000 )
               b(3) = (  0.000000  0.000000  1.000000 )

     PseudoPot. # 1 for Au read from file:
     ./Au.blyp-d-hgh.UPF
     MD5 check sum: c10d8bae01f806c36a1643a1c69a8479
     Pseudo is Norm-conserving, Zval = 11.0
     Generated in analytical, separable form
     Using radial grid of 1279 points,  6 beta functions with:
                l(1) =   0
                l(2) =   0
                l(3) =   1
                l(4) =   1
                l(5) =   2
                l(6) =   2

     atomic species   valence    mass     pseudopotential
        Au            11.00    28.08600     Au( 1.00)

     No symmetry found

   Cartesian axes

     site n.     atom                  positions (alat units)
         1           Au  tau(   1) = (  -0.1028253   0.1451776  -0.0247320  )
         2           Au  tau(   2) = (   0.0013747   0.1296043   0.2121993  )
         3           Au  tau(   3) = (   0.1464531   0.1050616   0.0007063  )
         4           Au  tau(   4) = (   0.2248645   0.2241238   0.2818700  )
         5           Au  tau(   5) = (   0.3559013   0.0640170   0.1240951  )

     number of k points=     1  Marzari-Vanderbilt smearing, width (Ry)=  0.0250
                       cart. coord. in units 2pi/alat
        k(    1) = (   0.0000000   0.0000000   0.0000000), wk =   2.0000000

     Initial potential from superposition of free atoms
     Check: negative starting charge=   -0.006285

     starting charge   54.99940, renormalised to   55.00000

     negative rho (up, down):  6.285E-03 0.000E+00
     Starting wfc are   45 randomized atomic wfcs

     Self-consistent Calculation

     iteration #  1     ecut=    30.00 Ry     beta=0.70
     Davidson diagonalization with overlap
     ethr =  1.00E-02,  avg # of iterations =  3.0

     Threshold (ethr) on eigenvalues was too large:
     Diagonalizing with lowered threshold

     Davidson diagonalization with overlap
     ethr =  3.85E-04,  avg # of iterations =  8.0

     negative rho (up, down):  8.470E-04 0.000E+00

     total energy              =    -329.36640182 Ry
     Harris-Foulkes estimate   =    -329.52768281 Ry
     estimated scf accuracy    <       0.27069793 Ry

[...]

     End of self-consistent calculation

          k = 0.0000 0.0000 0.0000 ( 22119 PWs)   bands (ev):

    -8.3304  -7.7181  -7.6085  -7.2699  -7.0145  -6.7210  -6.6911  -6.5157
    -6.2254  -5.9785  -5.9250  -5.7462  -5.6491  -5.5779  -5.5486  -5.4694
    -5.2221  -5.2034  -5.1507  -5.1394  -5.1270  -4.9802  -4.9504  -4.9134
    -4.8524  -4.4577  -4.3706  -3.7227  -2.4515  -2.2562  -0.3589  -0.1810
     0.3711   0.6901

     the Fermi energy is    -3.7095 ev

!    total energy              =    -329.47284420 Ry
     Harris-Foulkes estimate   =    -329.47284422 Ry
     estimated scf accuracy    <          3.0E-09 Ry

     The total energy is the sum of the following terms:

     one-electron contribution =    -611.43824552 Ry
     hartree contribution      =     327.25032537 Ry
     xc contribution           =     -51.42390622 Ry
     ewald contribution        =       6.13887391 Ry
     smearing contrib. (-TS)   =       0.00010826 Ry

     convergence has been achieved in  12 iterations

     Forces acting on atoms (Ry/au):

     atom    1 type  1   force =    -0.00170276   -0.00333027   -0.00054188
     atom    2 type  1   force =    -0.01638415    0.00540667   -0.00070338
     atom    3 type  1   force =    -0.01051642    0.00230508   -0.01114455
     atom    4 type  1   force =     0.01055849   -0.00876149    0.00010292
     atom    5 type  1   force =     0.01804483    0.00438001    0.01228689

     Total force =     0.035165     Total SCF correction =     0.000186

     BFGS Geometry Optimization

     number of scf cycles    =   1
     number of bfgs steps    =   0

     energy   new            =    -329.4728441979 Ry

     new trust radius        =       0.0222658471 bohr
     new conv_thr            =       0.0000000100 Ry

ATOMIC_POSITIONS (bohr)
Au      -2.058207759   2.900220730  -0.495181879
Au       0.011110855   2.597491667   4.243281624
Au       2.918545585   2.103537081   0.002980448
Au       4.507847494   4.473713511   5.637503915
Au       7.136069826   1.284720011   2.494187891

     Writing output data file pwscf.save
     Check: negative starting charge=   -0.006285
     NEW-OLD atomic charge density approx. for the potential
     Check: negative starting charge=   -0.006283

[...]

     energy   old            =    -329.4728441979 Ry
     energy   new            =    -329.4739245724 Ry

     CASE: energy  _new < energy  _old

[...]

     iteration #  1     ecut=    30.00 Ry     beta=0.70
     Davidson diagonalization with overlap
     c_bands:  1 eigenvalues not converged
     ethr =  1.00E-06,  avg # of iterations = 20.0

[...]

     iteration #  1     ecut=    30.00 Ry     beta=0.70
     Davidson diagonalization with overlap
     c_bands:  1 eigenvalues not converged
     ethr =  1.00E-06,  avg # of iterations = 20.0

[...]

     CASE: energy  _new > energy  _old

[...]

     number of scf cycles    =  29
     number of bfgs steps    =  27

     energy   old            =    -329.4911280738 Ry
     energy   new            =    -329.4911357915 Ry

     CASE: energy  _new < energy  _old

     new trust radius        =       0.0034800112 bohr
     new conv_thr            =            1.0E-10 Ry

ATOMIC_POSITIONS (bohr)
Au      -1.922336062   2.335447725  -0.632260568
Au      -0.580920534   3.943246356   4.089108771
Au       2.981843497   1.993999965   0.535287210
Au       4.306463190   3.381751018   5.671008367
Au       7.730315908   1.705237935   2.219628220

     Writing output data file pwscf.save
     Check: negative starting charge=   -0.006519
     NEW-OLD atomic charge density approx. for the potential
     Check: negative starting charge=   -0.006520

     negative rho (up, down):  3.304E-08 0.000E+00

     Self-consistent Calculation

[...]

     Threshold (ethr) on eigenvalues was too large:
     Diagonalizing with lowered threshold

     Davidson diagonalization with overlap
     ethr =  4.17E-09,  avg # of iterations =  2.0

[...]

     total energy              =    -329.49114643 Ry
     Harris-Foulkes estimate   =    -329.49114642 Ry
     estimated scf accuracy    <          7.8E-10 Ry

     iteration #  8     ecut=    30.00 Ry     beta=0.70
     Davidson diagonalization with overlap
     ethr =  1.42E-12,  avg # of iterations =  2.0

     End of self-consistent calculation

          k = 0.0000 0.0000 0.0000 ( 22119 PWs)   bands (ev):

    -8.5098  -7.7877  -7.6600  -7.2418  -6.8709  -6.8162  -6.6264  -6.4863
    -6.3121  -6.0679  -5.9607  -5.7727  -5.7343  -5.6876  -5.4559  -5.3724
    -5.3180  -5.2419  -5.2018  -5.1846  -5.1718  -5.1228  -4.9999  -4.9195
    -4.8399  -4.7328  -4.4699  -3.7868  -2.5090  -2.1801  -0.5658  -0.2123
     0.5308   0.8763

     the Fermi energy is    -3.7565 ev

!    total energy              =    -329.49114643 Ry
     Harris-Foulkes estimate   =    -329.49114643 Ry
     estimated scf accuracy    <          5.5E-11 Ry

     The total energy is the sum of the following terms:

     one-electron contribution =    -609.92106971 Ry
     hartree contribution      =     326.38999534 Ry
     xc contribution           =     -51.40462232 Ry
     ewald contribution        =       5.44839796 Ry
     smearing contrib. (-TS)   =      -0.00384770 Ry

     convergence has been achieved in   8 iterations

     Forces acting on atoms (Ry/au):

     atom    1 type  1   force =    -0.00022899    0.00053224   -0.00000025
     atom    2 type  1   force =    -0.00080207   -0.00008753   -0.00027556
     atom    3 type  1   force =     0.00062628   -0.00033649    0.00099684
     atom    4 type  1   force =     0.00065690    0.00029408   -0.00050749
     atom    5 type  1   force =    -0.00025211   -0.00040230   -0.00021355

     Total force =     0.001900     Total SCF correction =     0.000035

     bfgs converged in  30 scf cycles and  28 bfgs steps
     (criteria: energy <  1.0E-04, force <  1.0E-03)

     End of BFGS Geometry Optimization

     Final energy   =    -329.4911464312 Ry
Begin final coordinates

ATOMIC_POSITIONS (bohr)
Au      -1.922336062   2.335447725  -0.632260568
Au      -0.580920534   3.943246356   4.089108771
Au       2.981843497   1.993999965   0.535287210
Au       4.306463190   3.381751018   5.671008367
Au       7.730315908   1.705237935   2.219628220
End final coordinates

     Writing output data file pwscf.save

     General routines

     Parallel routines

   This run was terminated on:  22:34:50   3Aug2017

   JOB DONE.