     Program PWSCF v.6.0 (svn rev. 13079) starts on  3Aug2017 at 21:19:23

     Current dimensions of program PWSCF are:
     Max number of different atomic species (ntypx) = 10
     Max number of k-points (npk) =  40000
     Max angular momentum in pseudopotentials (lmaxx) =  3
     Message from routine iosys:
     pot_extrapolation='second-order' not available, using 'atomic'
     Message from routine iosys:
     wfc_extrapolation='second-order' not available, using 'atomic'

     Subspace diagonalization in iterative solution of the eigenvalue problem:
     a serial algorithm will be used

     bravais-lattice index     =            1
     lattice parameter (alat)  =      20.0000  a.u.
     unit-cell volume          =    8000.0000 (a.u.)^3
     number of atoms/cell      =            5
     number of atomic types    =            1
     number of electrons       =        55.00
     number of Kohn-Sham states=           34
     kinetic-energy cutoff     =      30.0000  Ry
     charge density cutoff     =     120.0000  Ry
     convergence threshold     =      1.0E-08
     mixing beta               =       0.7000
     number of iterations used =            8  plain     mixing
     Exchange-correlation      = BLYP ( 1  3  1  3 0 0)
     nstep                     =           50

     celldm(1)=  20.000000  celldm(2)=   0.000000  celldm(3)=   0.000000
     celldm(4)=   0.000000  celldm(5)=   0.000000  celldm(6)=   0.000000

     crystal axes: (cart. coord. in units of alat)
               a(1) = (   1.000000   0.000000   0.000000 )
               a(2) = (   0.000000   1.000000   0.000000 )
               a(3) = (   0.000000   0.000000   1.000000 )

     reciprocal axes: (cart. coord. in units 2 pi/alat)
               b(1) = (  1.000000  0.000000  0.000000 )
               b(2) = (  0.000000  1.000000  0.000000 )
               b(3) = (  0.000000  0.000000  1.000000 )

     PseudoPot. # 1 for Au read from file:
     ./Au.blyp-d-hgh.UPF
     MD5 check sum: c10d8bae01f806c36a1643a1c69a8479
     Pseudo is Norm-conserving, Zval = 11.0
     Generated in analytical, separable form
     Using radial grid of 1279 points,  6 beta functions with:
                l(1) =   0
                l(2) =   0
                l(3) =   1
                l(4) =   1
                l(5) =   2
                l(6) =   2

     atomic species   valence    mass     pseudopotential
        Au            11.00    28.08600     Au( 1.00)

     No symmetry found

   Cartesian axes

     site n.     atom                  positions (alat units)
         1           Au  tau(   1) = (  -0.1062080   0.1450418  -0.0242892  )
         2           Au  tau(   2) = (  -0.0018342   0.1351122   0.2082011  )
         3           Au  tau(   3) = (   0.1446573   0.1042153  -0.0004980  )
         4           Au  tau(   4) = (   0.2276198   0.2070458   0.2829311  )
         5           Au  tau(   5) = (   0.3555608   0.0529598   0.1167725  )

     number of k points=     1  Marzari-Vanderbilt smearing, width (Ry)=  0.0250
                       cart. coord. in units 2pi/alat
        k(    1) = (   0.0000000   0.0000000   0.0000000), wk =   2.0000000

     Initial potential from superposition of free atoms
     Check: negative starting charge=   -0.006299

     starting charge   54.99940, renormalised to   55.00000

     negative rho (up, down):  6.299E-03 0.000E+00
     Starting wfc are   45 randomized atomic wfcs

     Self-consistent Calculation

     iteration #  1     ecut=    30.00 Ry     beta=0.70
     Davidson diagonalization with overlap
     ethr =  1.00E-02,  avg # of iterations =  3.0

     Threshold (ethr) on eigenvalues was too large:
     Diagonalizing with lowered threshold

     Davidson diagonalization with overlap
     ethr =  3.90E-04,  avg # of iterations =  8.0

     negative rho (up, down):  8.471E-04 0.000E+00

     total energy              =    -329.36847881 Ry
     Harris-Foulkes estimate   =    -329.53139707 Ry
     estimated scf accuracy    <       0.27326758 Ry

[...]

     End of self-consistent calculation

          k = 0.0000 0.0000 0.0000 ( 22119 PWs)   bands (ev):

    -8.3675  -7.7400  -7.6357  -7.3157  -7.0519  -6.7301  -6.7115  -6.5146
    -6.1997  -6.0315  -5.9228  -5.7443  -5.6526  -5.5829  -5.5631  -5.4594
    -5.2142  -5.2044  -5.1620  -5.1497  -5.1344  -5.0180  -4.9381  -4.9021
    -4.8665  -4.4724  -4.3670  -3.7317  -2.4323  -2.2256  -0.3951  -0.1952
     0.4148   0.6677

     the Fermi energy is    -3.7199 ev

!    total energy              =    -329.47591160 Ry
     Harris-Foulkes estimate   =    -329.47591164 Ry
     estimated scf accuracy    <          2.6E-09 Ry

     The total energy is the sum of the following terms:

     one-electron contribution =    -612.26428038 Ry
     hartree contribution      =     327.64608603 Ry
     xc contribution           =     -51.43066054 Ry
     ewald contribution        =       6.57255804 Ry
     smearing contrib. (-TS)   =       0.00038525 Ry

     convergence has been achieved in  12 iterations

     Forces acting on atoms (Ry/au):

     atom    1 type  1   force =    -0.00358361   -0.00270933   -0.00676429
     atom    2 type  1   force =    -0.01384357    0.00550530    0.00737433
     atom    3 type  1   force =    -0.01164184    0.00096426   -0.01069453
     atom    4 type  1   force =     0.01172077   -0.00676682   -0.00032365
     atom    5 type  1   force =     0.01734825    0.00300658    0.01040814

     Total force =     0.034565     Total SCF correction =     0.000185

     BFGS Geometry Optimization

     number of scf cycles    =   1
     number of bfgs steps    =   0

     energy   new            =    -329.4759115983 Ry

     new trust radius        =       0.0204531338 bohr
     new conv_thr            =       0.0000000100 Ry

ATOMIC_POSITIONS (bohr)
Au      -2.127743606   2.898126665  -0.492547291
Au      -0.050527574   2.707750303   4.171396333
Au       2.881505162   2.085270263  -0.020653529
Au       4.564116766   4.134149184   5.658298350
Au       7.128564251   1.062203584   2.345858137

     Writing output data file pwscf.save
     Check: negative starting charge=   -0.006299
     NEW-OLD atomic charge density approx. for the potential
     Check: negative starting charge=   -0.006303

[...]

     energy   old            =    -329.4759115983 Ry
     energy   new            =    -329.4769652682 Ry

     CASE: energy  _new < energy  _old

[...]

     iteration #  1     ecut=    30.00 Ry     beta=0.70
     Davidson diagonalization with overlap
     c_bands:  1 eigenvalues not converged
     ethr =  1.00E-06,  avg # of iterations = 20.0

[...]

     iteration #  1     ecut=    30.00 Ry     beta=0.70
     Davidson diagonalization with overlap
     c_bands:  1 eigenvalues not converged
     ethr =  1.00E-06,  avg # of iterations = 20.0

[...]

     negative rho (up, down):  3.429E-08 0.000E+00

[...]

     number of scf cycles    =  29
     number of bfgs steps    =  28

     energy   old            =    -329.4915198475 Ry
     energy   new            =    -329.4915384677 Ry

     CASE: energy  _new < energy  _old

     new trust radius        =       0.0027188710 bohr
     new conv_thr            =            1.0E-10 Ry

ATOMIC_POSITIONS (bohr)
Au      -2.042552870   2.504928317  -0.553511790
Au      -0.513907939   3.930146984   4.181332793
Au       2.838838951   1.838797238   0.529329872
Au       4.456439997   3.265256608   5.524349923
Au       7.657096862   1.348370853   1.980851202

     Writing output data file pwscf.save
     Check: negative starting charge=   -0.006485
     NEW-OLD atomic charge density approx. for the potential
     Check: negative starting charge=   -0.006486

     Self-consistent Calculation

[...]

     Threshold (ethr) on eigenvalues was too large:
     Diagonalizing with lowered threshold

     Davidson diagonalization with overlap
     ethr =  2.46E-09,  avg # of iterations =  3.0

[...]

     total energy              =    -329.49154338 Ry
     Harris-Foulkes estimate   =    -329.49154337 Ry
     estimated scf accuracy    <          2.2E-10 Ry

     iteration #  8     ecut=    30.00 Ry     beta=0.70
     Davidson diagonalization with overlap
     ethr =  4.09E-13,  avg # of iterations =  2.0

     End of self-consistent calculation

          k = 0.0000 0.0000 0.0000 ( 22119 PWs)   bands (ev):

    -8.5262  -7.8001  -7.6627  -7.2435  -6.8414  -6.8256  -6.6167  -6.4943
    -6.3085  -6.0836  -5.9560  -5.7738  -5.7318  -5.6893  -5.4685  -5.3565
    -5.3136  -5.2529  -5.1998  -5.1806  -5.1723  -5.1219  -5.0014  -4.9251
    -4.8301  -4.7364  -4.4847  -3.7844  -2.5057  -2.1816  -0.5637  -0.2114
     0.5650   0.8342

     the Fermi energy is    -3.7519 ev

!    total energy              =    -329.49154338 Ry
     Harris-Foulkes estimate   =    -329.49154338 Ry
     estimated scf accuracy    <          6.0E-11 Ry

     The total energy is the sum of the following terms:

     one-electron contribution =    -609.71325279 Ry
     hartree contribution      =     326.28340583 Ry
     xc contribution           =     -51.40371672 Ry
     ewald contribution        =       5.34633957 Ry
     smearing contrib. (-TS)   =      -0.00431928 Ry

     convergence has been achieved in   8 iterations

     Forces acting on atoms (Ry/au):

     atom    1 type  1   force =    -0.00020871    0.00015073   -0.00032991
     atom    2 type  1   force =     0.00006705    0.00010100   -0.00019101
     atom    3 type  1   force =     0.00035398    0.00033624    0.00014461
     atom    4 type  1   force =    -0.00030244    0.00005464    0.00093679
     atom    5 type  1   force =     0.00009013   -0.00064260   -0.00056048

     Total force =     0.001481     Total SCF correction =     0.000021

     bfgs converged in  30 scf cycles and  29 bfgs steps
     (criteria: energy <  1.0E-04, force <  1.0E-03)

     End of BFGS Geometry Optimization

     Final energy   =    -329.4915433850 Ry
Begin final coordinates

ATOMIC_POSITIONS (bohr)
Au      -2.042552870   2.504928317  -0.553511790
Au      -0.513907939   3.930146984   4.181332793
Au       2.838838951   1.838797238   0.529329872
Au       4.456439997   3.265256608   5.524349923
Au       7.657096862   1.348370853   1.980851202
End final coordinates

     Writing output data file pwscf.save

     General routines

     Parallel routines

   This run was terminated on:  21:20:42   3Aug2017

   JOB DONE.