     Program PWSCF v.6.0 (svn rev. 13079) starts on  3Aug2017 at 15:18:34

     Current dimensions of program PWSCF are:
     Max number of different atomic species (ntypx) = 10
     Max number of k-points (npk) =  40000
     Max angular momentum in pseudopotentials (lmaxx) =  3
     Message from routine iosys:
     pot_extrapolation='second-order' not available, using 'atomic'
     Message from routine iosys:
     wfc_extrapolation='second-order' not available, using 'atomic'

     Subspace diagonalization in iterative solution of the eigenvalue problem:
     a serial algorithm will be used

     bravais-lattice index     =            1
     lattice parameter (alat)  =      20.0000  a.u.
     unit-cell volume          =    8000.0000 (a.u.)^3
     number of atoms/cell      =            5
     number of atomic types    =            1
     number of electrons       =        55.00
     number of Kohn-Sham states=           34
     kinetic-energy cutoff     =      30.0000  Ry
     charge density cutoff     =     120.0000  Ry
     convergence threshold     =      1.0E-08
     mixing beta               =       0.7000
     number of iterations used =            8  plain     mixing
     Exchange-correlation      = BLYP ( 1  3  1  3 0 0)
     nstep                     =           50

     celldm(1)=  20.000000  celldm(2)=   0.000000  celldm(3)=   0.000000
     celldm(4)=   0.000000  celldm(5)=   0.000000  celldm(6)=   0.000000

     crystal axes: (cart. coord. in units of alat)
               a(1) = (   1.000000   0.000000   0.000000 )
               a(2) = (   0.000000   1.000000   0.000000 )
               a(3) = (   0.000000   0.000000   1.000000 )

     reciprocal axes: (cart. coord. in units 2 pi/alat)
               b(1) = (  1.000000  0.000000  0.000000 )
               b(2) = (  0.000000  1.000000  0.000000 )
               b(3) = (  0.000000  0.000000  1.000000 )

     PseudoPot. # 1 for Au read from file:
     ./Au.blyp-d-hgh.UPF
     MD5 check sum: c10d8bae01f806c36a1643a1c69a8479
     Pseudo is Norm-conserving, Zval = 11.0
     Generated in analytical, separable form
     Using radial grid of 1279 points,  6 beta functions with:
                l(1) =   0
                l(2) =   0
                l(3) =   1
                l(4) =   1
                l(5) =   2
                l(6) =   2

     atomic species   valence    mass     pseudopotential
        Au            11.00    28.08600     Au( 1.00)

     No symmetry found

   Cartesian axes

     site n.     atom                  positions (alat units)
         1           Au  tau(   1) = (  -0.0952861   0.0640863  -0.0210515  )
         2           Au  tau(   2) = (  -0.0430841   0.2010665   0.1885527  )
         3           Au  tau(   3) = (   0.1500277   0.0549839   0.0356014  )
         4           Au  tau(   4) = (   0.2054324   0.2160834   0.2484626  )
         5           Au  tau(   5) = (   0.3779157   0.0638140   0.1428397  )

     number of k points=     1  Marzari-Vanderbilt smearing, width (Ry)=  0.0250
                       cart. coord. in units 2pi/alat
        k(    1) = (   0.0000000   0.0000000   0.0000000), wk =   2.0000000

     Initial potential from superposition of free atoms
     Check: negative starting charge=   -0.006337

     starting charge   54.99940, renormalised to   55.00000

     negative rho (up, down):  6.337E-03 0.000E+00
     Starting wfc are   45 randomized atomic wfcs

     Self-consistent Calculation

     iteration #  1     ecut=    30.00 Ry     beta=0.70
     Davidson diagonalization with overlap
     ethr =  1.00E-02,  avg # of iterations =  3.0

     Threshold (ethr) on eigenvalues was too large:
     Diagonalizing with lowered threshold

     Davidson diagonalization with overlap
     ethr =  3.95E-04,  avg # of iterations =  8.0

     negative rho (up, down):  8.464E-04 0.000E+00

     total energy              =    -329.38012492 Ry
     Harris-Foulkes estimate   =    -329.54654689 Ry
     estimated scf accuracy    <       0.27712666 Ry

[...]

     End of self-consistent calculation

          k = 0.0000 0.0000 0.0000 ( 22119 PWs)   bands (ev):

    -8.4358  -7.7472  -7.6323  -7.1991  -6.9726  -6.7876  -6.7052  -6.4525
    -6.2895  -6.0531  -5.9869  -5.7599  -5.7298  -5.6614  -5.4125  -5.3528
    -5.3220  -5.2186  -5.1848  -5.1763  -5.1661  -5.1318  -4.9852  -4.9006
    -4.8556  -4.6714  -4.4107  -3.7900  -2.5175  -2.1246  -0.5308  -0.1884
     0.5663   0.7773

     the Fermi energy is    -3.7704 ev

!    total energy              =    -329.48906153 Ry
     Harris-Foulkes estimate   =    -329.48906153 Ry
     estimated scf accuracy    <          3.3E-09 Ry

     The total energy is the sum of the following terms:

     one-electron contribution =    -608.68078566 Ry
     hartree contribution      =     325.80073230 Ry
     xc contribution           =     -51.41304542 Ry
     ewald contribution        =       4.80557267 Ry
     smearing contrib. (-TS)   =      -0.00153543 Ry

     convergence has been achieved in  13 iterations

     Forces acting on atoms (Ry/au):

     atom    1 type  1   force =    -0.00273070   -0.00106641   -0.00383212
     atom    2 type  1   force =    -0.00028948   -0.00152804   -0.00349820
     atom    3 type  1   force =    -0.00467713    0.00493085    0.00877052
     atom    4 type  1   force =     0.00000174    0.00210694    0.00351994
     atom    5 type  1   force =     0.00769557   -0.00444333   -0.00496014

     Total force =     0.016776     Total SCF correction =     0.000274

     BFGS Geometry Optimization

     number of scf cycles    =   1
     number of bfgs steps    =   0

     energy   new            =    -329.4890615295 Ry

     new trust radius        =       0.0110955323 bohr
     new conv_thr            =       0.0000000100 Ry

ATOMIC_POSITIONS (bohr)
Au      -1.908452700   1.280659592  -0.424862118
Au      -0.861971484   4.019801957   3.767556799
Au       2.995876867   1.104607848   0.720798519
Au       4.108648742   4.323774936   4.972770937
Au       7.566009575   1.271836667   2.851833863

     Writing output data file pwscf.save
     Check: negative starting charge=   -0.006337
     NEW-OLD atomic charge density approx. for the potential
     Check: negative starting charge=   -0.006333

[...]

     energy   old            =    -329.4890615295 Ry
     energy   new            =    -329.4893295468 Ry

     CASE: energy  _new < energy  _old

     WARNING: bfgs curvature condition failed, Theta= 0.886
     new trust radius        =       0.0122050856 bohr
     new conv_thr            =       0.0000000003 Ry

[...]

     WARNING: bfgs curvature condition failed, Theta= 0.740
     new trust radius        =       0.1588879179 bohr
     new conv_thr            =            1.0E-10 Ry

[...]

     CASE: energy  _new > energy  _old

[...]

     WARNING: info= 13 for Hessian
     new trust radius        =       0.0194336690 bohr
     new conv_thr            =            1.0E-10 Ry

[...]

     WARNING: info= 14 for Hessian
     new trust radius        =       0.0014160627 bohr
     new conv_thr            =            1.0E-10 Ry

[...]

     CASE: energy  _new > energy  _old

     new trust radius        =       0.0000126570 bohr

     trust_radius < trust_radius_min

     resetting bfgs history

     new conv_thr            =            1.0E-10 Ry

[...]

     Self-consistent Calculation

[...]

     Threshold (ethr) on eigenvalues was too large:
     Diagonalizing with lowered threshold

     Davidson diagonalization with overlap
     ethr =  1.66E-08,  avg # of iterations =  1.0

[...]

     total energy              =    -329.49277804 Ry
     Harris-Foulkes estimate   =    -329.49277797 Ry
     estimated scf accuracy    <          1.8E-09 Ry

     iteration #  8     ecut=    30.00 Ry     beta=0.70
     Davidson diagonalization with overlap
     ethr =  3.26E-12,  avg # of iterations =  2.0

     End of self-consistent calculation

          k = 0.0000 0.0000 0.0000 ( 22119 PWs)   bands (ev):

    -8.5133  -7.7931  -7.6589  -7.2434  -6.8432  -6.8157  -6.6222  -6.4923
    -6.3095  -6.0776  -5.9584  -5.7649  -5.7275  -5.6843  -5.4689  -5.3567
    -5.3095  -5.2486  -5.1974  -5.1814  -5.1683  -5.1197  -5.0034  -4.9222
    -4.8316  -4.7311  -4.4817  -3.7726  -2.4690  -2.1836  -0.5324  -0.1564
     0.5160   0.7852

     the Fermi energy is    -3.7389 ev

!    total energy              =    -329.49277804 Ry
     Harris-Foulkes estimate   =    -329.49277804 Ry
     estimated scf accuracy    <          5.5E-11 Ry

     The total energy is the sum of the following terms:

     one-electron contribution =    -607.24851652 Ry
     hartree contribution      =     325.05441857 Ry
     xc contribution           =     -51.40003899 Ry
     ewald contribution        =       4.10594982 Ry
     smearing contrib. (-TS)   =      -0.00459092 Ry

     convergence has been achieved in   8 iterations

     Forces acting on atoms (Ry/au):

     atom    1 type  1   force =     0.00027092    0.00064303   -0.00074165
     atom    2 type  1   force =     0.00109792    0.00101085    0.00085564
     atom    3 type  1   force =    -0.00118203   -0.00035033   -0.00051843
     atom    4 type  1   force =    -0.00016719   -0.00040345    0.00045210
     atom    5 type  1   force =    -0.00001963   -0.00090010   -0.00004766

     Total force =     0.002644     Total SCF correction =     0.000033

     number of scf cycles    =  50
     number of bfgs steps    =  46

     energy   old            =    -329.4927645835 Ry
     energy   new            =    -329.4927780443 Ry

     CASE: energy  _new < energy  _old

     new trust radius        =       0.0090954375 bohr
     new conv_thr            =            1.0E-10 Ry

ATOMIC_POSITIONS (bohr)
Au      -1.930033790   1.282183766  -0.633093703
Au      -0.654605483   4.439464579   3.249608554
Au       2.838808608   0.986148962   1.058222025
Au       4.139663876   4.246604780   5.220210950
Au       7.506277790   1.046278913   2.993150174

     Writing output data file pwscf.save
     Check: negative starting charge=   -0.006337
     NEW-OLD atomic charge density approx. for the potential
     Check: negative starting charge=   -0.006342

     negative rho (up, down):  6.359E-06 0.000E+00

     Writing output data file pwscf.save

     General routines

     Parallel routines

   This run was terminated on:  15:21: 1   3Aug2017

   JOB DONE.