     Program PWSCF v.6.0 (svn rev. 13079) starts on  3Aug2017 at 17: 8:24

     Current dimensions of program PWSCF are:
     Max number of different atomic species (ntypx) = 10
     Max number of k-points (npk) =  40000
     Max angular momentum in pseudopotentials (lmaxx) =  3
     Message from routine iosys:
     pot_extrapolation='second-order' not available, using 'atomic'
     Message from routine iosys:
     wfc_extrapolation='second-order' not available, using 'atomic'

     Subspace diagonalization in iterative solution of the eigenvalue problem:
     a serial algorithm will be used

     bravais-lattice index     =            1
     lattice parameter (alat)  =      20.0000  a.u.
     unit-cell volume          =    8000.0000 (a.u.)^3
     number of atoms/cell      =            5
     number of atomic types    =            1
     number of electrons       =        55.00
     number of Kohn-Sham states=           34
     kinetic-energy cutoff     =      30.0000  Ry
     charge density cutoff     =     120.0000  Ry
     convergence threshold     =      1.0E-08
     mixing beta               =       0.7000
     number of iterations used =            8  plain     mixing
     Exchange-correlation      = BLYP ( 1  3  1  3 0 0)
     nstep                     =           50

     celldm(1)=  20.000000  celldm(2)=   0.000000  celldm(3)=   0.000000
     celldm(4)=   0.000000  celldm(5)=   0.000000  celldm(6)=   0.000000

     crystal axes: (cart. coord. in units of alat)
               a(1) = (   1.000000   0.000000   0.000000 )
               a(2) = (   0.000000   1.000000   0.000000 )
               a(3) = (   0.000000   0.000000   1.000000 )

     reciprocal axes: (cart. coord. in units 2 pi/alat)
               b(1) = (  1.000000  0.000000  0.000000 )
               b(2) = (  0.000000  1.000000  0.000000 )
               b(3) = (  0.000000  0.000000  1.000000 )

     PseudoPot. # 1 for Au read from file:
     ./Au.blyp-d-hgh.UPF
     MD5 check sum: c10d8bae01f806c36a1643a1c69a8479
     Pseudo is Norm-conserving, Zval = 11.0
     Generated in analytical, separable form
     Using radial grid of 1279 points,  6 beta functions with:
                l(1) =   0
                l(2) =   0
                l(3) =   1
                l(4) =   1
                l(5) =   2
                l(6) =   2

     atomic species   valence    mass     pseudopotential
        Au            11.00    28.08600     Au( 1.00)

     No symmetry found

   Cartesian axes

     site n.     atom                  positions (alat units)
         1           Au  tau(   1) = (  -0.0811509   0.1259000  -0.0547089  )
         2           Au  tau(   2) = (  -0.0446263   0.2011249   0.1803513  )
         3           Au  tau(   3) = (   0.1508549   0.0806195   0.0289176  )
         4           Au  tau(   4) = (   0.2002105   0.1799798   0.2863360  )
         5           Au  tau(   5) = (   0.3689899   0.0592612   0.1523462  )

     number of k points=     1  Marzari-Vanderbilt smearing, width (Ry)=  0.0250
                       cart. coord. in units 2pi/alat
        k(    1) = (   0.0000000   0.0000000   0.0000000), wk =   2.0000000

     Initial potential from superposition of free atoms
     Check: negative starting charge=   -0.006306

     starting charge   54.99940, renormalised to   55.00000

     negative rho (up, down):  6.307E-03 0.000E+00
     Starting wfc are   45 randomized atomic wfcs

     Self-consistent Calculation

     iteration #  1     ecut=    30.00 Ry     beta=0.70
     Davidson diagonalization with overlap
     ethr =  1.00E-02,  avg # of iterations =  3.0

     Threshold (ethr) on eigenvalues was too large:
     Diagonalizing with lowered threshold

     Davidson diagonalization with overlap
     ethr =  4.17E-04,  avg # of iterations =  5.0

     negative rho (up, down):  8.612E-04 0.000E+00

     total energy              =    -329.37321956 Ry
     Harris-Foulkes estimate   =    -329.54740588 Ry
     estimated scf accuracy    <       0.28759238 Ry

[...]

     End of self-consistent calculation

          k = 0.0000 0.0000 0.0000 ( 22119 PWs)   bands (ev):

    -8.5206  -7.8900  -7.6333  -7.1807  -6.9119  -6.8816  -6.8378  -6.5454
    -6.2171  -6.1518  -6.0615  -5.7615  -5.7516  -5.6699  -5.4299  -5.3410
    -5.2944  -5.2519  -5.2219  -5.1569  -5.1521  -5.1360  -5.0029  -4.9132
    -4.9057  -4.6562  -4.4592  -3.6951  -2.4575  -2.1958  -0.5330  -0.1748
     0.4548   0.7469

     the Fermi energy is    -3.6562 ev

!    total energy              =    -329.48703999 Ry
     Harris-Foulkes estimate   =    -329.48704003 Ry
     estimated scf accuracy    <          5.7E-09 Ry

     The total energy is the sum of the following terms:

     one-electron contribution =    -609.17801051 Ry
     hartree contribution      =     326.00310934 Ry
     xc contribution           =     -51.41565838 Ry
     ewald contribution        =       5.10937523 Ry
     smearing contrib. (-TS)   =      -0.00585567 Ry

     convergence has been achieved in  12 iterations

     Forces acting on atoms (Ry/au):

     atom    1 type  1   force =    -0.00790063   -0.00509646   -0.02104669
     atom    2 type  1   force =     0.01630162    0.00555846    0.01995897
     atom    3 type  1   force =     0.00027431    0.00241395    0.00608732
     atom    4 type  1   force =    -0.02886054    0.01151876    0.00758652
     atom    5 type  1   force =     0.02018524   -0.01439470   -0.01258612

     Total force =     0.055367     Total SCF correction =     0.000233

     BFGS Geometry Optimization

     number of scf cycles    =   1
     number of bfgs steps    =   0

     energy   new            =    -329.4870399864 Ry

     new trust radius        =       0.0319869964 bohr
     new conv_thr            =       0.0000000100 Ry

ATOMIC_POSITIONS (bohr)
Au      -1.630918630   2.512904538  -1.115225693
Au      -0.876224376   4.028055459   3.626985974
Au       3.017371308   1.614804946   0.584440318
Au       3.975350458   3.611115758   5.734305520
Au       7.399983240   1.170829299   3.034337880

     Writing output data file pwscf.save
     Check: negative starting charge=   -0.006306
     NEW-OLD atomic charge density approx. for the potential
     Check: negative starting charge=   -0.006289

[...]

     energy   old            =    -329.4870399864 Ry
     energy   new            =    -329.4896405739 Ry

     CASE: energy  _new < energy  _old

[...]

     CASE: energy  _new > energy  _old

[...]

     number of scf cycles    =  23
     number of bfgs steps    =  21

     energy   old            =    -329.4934380488 Ry
     energy   new            =    -329.4934490705 Ry

     CASE: energy  _new < energy  _old

     new trust radius        =       0.0054523299 bohr
     new conv_thr            =            1.0E-10 Ry

ATOMIC_POSITIONS (bohr)
Au      -1.631409171   2.458968374  -1.177393474
Au      -0.795934293   4.238999717   3.596612798
Au       2.995994824   1.657361686   0.704711217
Au       3.862797120   3.531090297   5.746426985
Au       7.454113519   1.051289927   2.994486475

     Writing output data file pwscf.save
     Check: negative starting charge=   -0.006355
     NEW-OLD atomic charge density approx. for the potential
     Check: negative starting charge=   -0.006359

     negative rho (up, down):  1.540E-07 0.000E+00

     Self-consistent Calculation

[...]

     Threshold (ethr) on eigenvalues was too large:
     Diagonalizing with lowered threshold

     Davidson diagonalization with overlap
     ethr =  5.29E-09,  avg # of iterations =  2.0

[...]

     total energy              =    -329.49345726 Ry
     Harris-Foulkes estimate   =    -329.49345725 Ry
     estimated scf accuracy    <          4.6E-10 Ry

     iteration #  8     ecut=    30.00 Ry     beta=0.70
     Davidson diagonalization with overlap
     ethr =  8.36E-13,  avg # of iterations =  2.0

     End of self-consistent calculation

          k = 0.0000 0.0000 0.0000 ( 22119 PWs)   bands (ev):

    -8.5008  -7.7753  -7.6476  -7.2323  -6.8506  -6.8096  -6.6169  -6.4737
    -6.3080  -6.0714  -5.9527  -5.7677  -5.7254  -5.6837  -5.4582  -5.3549
    -5.3124  -5.2461  -5.2009  -5.1783  -5.1723  -5.1212  -5.0043  -4.9234
    -4.8362  -4.7370  -4.4784  -3.7724  -2.4417  -2.2015  -0.5338  -0.1813
     0.4661   0.7954

     the Fermi energy is    -3.7390 ev

!    total energy              =    -329.49345728 Ry
     Harris-Foulkes estimate   =    -329.49345726 Ry
     estimated scf accuracy    <          7.7E-11 Ry

     The total energy is the sum of the following terms:

     one-electron contribution =    -606.62333519 Ry
     hartree contribution      =     324.74678335 Ry
     xc contribution           =     -51.39824735 Ry
     ewald contribution        =       3.78588872 Ry
     smearing contrib. (-TS)   =      -0.00454680 Ry

     convergence has been achieved in   8 iterations

     Forces acting on atoms (Ry/au):

     atom    1 type  1   force =    -0.00052377   -0.00005812   -0.00042488
     atom    2 type  1   force =     0.00011286    0.00008294   -0.00062522
     atom    3 type  1   force =    -0.00017807   -0.00032654    0.00008498
     atom    4 type  1   force =     0.00028940    0.00061500    0.00039415
     atom    5 type  1   force =     0.00029958   -0.00031329    0.00057097

     Total force =     0.001465     Total SCF correction =     0.000030

     bfgs converged in  24 scf cycles and  22 bfgs steps
     (criteria: energy <  1.0E-04, force <  1.0E-03)

     End of BFGS Geometry Optimization

     Final energy   =    -329.4934572757 Ry
Begin final coordinates

ATOMIC_POSITIONS (bohr)
Au      -1.631409171   2.458968374  -1.177393474
Au      -0.795934293   4.238999717   3.596612798
Au       2.995994824   1.657361686   0.704711217
Au       3.862797120   3.531090297   5.746426985
Au       7.454113519   1.051289927   2.994486475
End final coordinates

     Writing output data file pwscf.save

     General routines

     Parallel routines

   This run was terminated on:  17: 9:33   3Aug2017

   JOB DONE.