     Program PWSCF v.6.0 (svn rev. 13079) starts on  4Aug2017 at  0: 6:40

     Current dimensions of program PWSCF are:
     Max number of different atomic species (ntypx) = 10
     Max number of k-points (npk) =  40000
     Max angular momentum in pseudopotentials (lmaxx) =  3
     Message from routine iosys:
     pot_extrapolation='second-order' not available, using 'atomic'
     Message from routine iosys:
     wfc_extrapolation='second-order' not available, using 'atomic'

     Subspace diagonalization in iterative solution of the eigenvalue problem:
     a serial algorithm will be used

     bravais-lattice index     =            1
     lattice parameter (alat)  =      20.0000  a.u.
     unit-cell volume          =    8000.0000 (a.u.)^3
     number of atoms/cell      =            5
     number of atomic types    =            1
     number of electrons       =        55.00
     number of Kohn-Sham states=           34
     kinetic-energy cutoff     =      30.0000  Ry
     charge density cutoff     =     120.0000  Ry
     convergence threshold     =      1.0E-08
     mixing beta               =       0.7000
     number of iterations used =            8  plain     mixing
     Exchange-correlation      = BLYP ( 1  3  1  3 0 0)
     nstep                     =           50

     celldm(1)=  20.000000  celldm(2)=   0.000000  celldm(3)=   0.000000
     celldm(4)=   0.000000  celldm(5)=   0.000000  celldm(6)=   0.000000

     crystal axes: (cart. coord. in units of alat)
               a(1) = (   1.000000   0.000000   0.000000 )
               a(2) = (   0.000000   1.000000   0.000000 )
               a(3) = (   0.000000   0.000000   1.000000 )

     reciprocal axes: (cart. coord. in units 2 pi/alat)
               b(1) = (  1.000000  0.000000  0.000000 )
               b(2) = (  0.000000  1.000000  0.000000 )
               b(3) = (  0.000000  0.000000  1.000000 )

     PseudoPot. # 1 for Au read from file:
     ./Au.blyp-d-hgh.UPF
     MD5 check sum: c10d8bae01f806c36a1643a1c69a8479
     Pseudo is Norm-conserving, Zval = 11.0
     Generated in analytical, separable form
     Using radial grid of 1279 points,  6 beta functions with:
                l(1) =   0
                l(2) =   0
                l(3) =   1
                l(4) =   1
                l(5) =   2
                l(6) =   2

     atomic species   valence    mass     pseudopotential
        Au            11.00    28.08600     Au( 1.00)

     No symmetry found

   Cartesian axes

     site n.     atom                  positions (alat units)
         1           Au  tau(   1) = (  -0.1000978   0.0889293  -0.0257364  )
         2           Au  tau(   2) = (   0.0016501   0.1192473   0.2152488  )
         3           Au  tau(   3) = (   0.1422303   0.0874874   0.0058295  )
         4           Au  tau(   4) = (   0.2268346   0.2172633   0.2844330  )
         5           Au  tau(   5) = (   0.3517711   0.0525937   0.1285626  )

     number of k points=     1  Marzari-Vanderbilt smearing, width (Ry)=  0.0250
                       cart. coord. in units 2pi/alat
        k(    1) = (   0.0000000   0.0000000   0.0000000), wk =   2.0000000

     Initial potential from superposition of free atoms
     Check: negative starting charge=   -0.006405

     starting charge   54.99940, renormalised to   55.00000

     negative rho (up, down):  6.405E-03 0.000E+00
     Starting wfc are   45 randomized atomic wfcs

     Self-consistent Calculation

     iteration #  1     ecut=    30.00 Ry     beta=0.70
     Davidson diagonalization with overlap
     ethr =  1.00E-02,  avg # of iterations =  3.0

     Threshold (ethr) on eigenvalues was too large:
     Diagonalizing with lowered threshold

     Davidson diagonalization with overlap
     ethr =  3.92E-04,  avg # of iterations =  7.0

     negative rho (up, down):  8.539E-04 0.000E+00

     total energy              =    -329.36301353 Ry
     Harris-Foulkes estimate   =    -329.52752267 Ry
     estimated scf accuracy    <       0.27582104 Ry

[...]

     End of self-consistent calculation

          k = 0.0000 0.0000 0.0000 ( 22119 PWs)   bands (ev):

    -8.4886  -7.8031  -7.6843  -7.2432  -7.0300  -6.8450  -6.6228  -6.5057
    -6.2719  -5.9901  -5.9282  -5.7678  -5.7613  -5.6092  -5.5257  -5.4529
    -5.2170  -5.1960  -5.1619  -5.1501  -5.1333  -4.9856  -4.9477  -4.9209
    -4.7750  -4.5266  -4.3306  -3.7152  -2.4349  -2.2098  -0.3960  -0.1850
     0.4323   0.6328

     the Fermi energy is    -3.7002 ev

!    total energy              =    -329.47050936 Ry
     Harris-Foulkes estimate   =    -329.47050940 Ry
     estimated scf accuracy    <          2.3E-09 Ry

     The total energy is the sum of the following terms:

     one-electron contribution =    -613.70105891 Ry
     hartree contribution      =     328.35678057 Ry
     xc contribution           =     -51.44154287 Ry
     ewald contribution        =       7.31577185 Ry
     smearing contrib. (-TS)   =      -0.00046001 Ry

     convergence has been achieved in  12 iterations

     Forces acting on atoms (Ry/au):

     atom    1 type  1   force =    -0.02659888   -0.00130862   -0.00069510
     atom    2 type  1   force =    -0.01459703    0.00824128    0.00414377
     atom    3 type  1   force =     0.01487613   -0.00357252   -0.01567147
     atom    4 type  1   force =     0.00337756   -0.00791649   -0.00005642
     atom    5 type  1   force =     0.02294223    0.00455634    0.01227923

     Total force =     0.047534     Total SCF correction =     0.000187

     BFGS Geometry Optimization

     number of scf cycles    =   1
     number of bfgs steps    =   0

     energy   new            =    -329.4705093609 Ry

     new trust radius        =       0.0266401239 bohr
     new conv_thr            =       0.0000000100 Ry

ATOMIC_POSITIONS (bohr)
Au      -2.028554883   1.777278381  -0.515423100
Au       0.018404966   2.393187282   4.309119769
Au       2.859482133   1.746176479   0.100918528
Au       4.540068556   4.337350513   5.688604578
Au       7.058364228   1.056431344   2.583531225

     Writing output data file pwscf.save
     Check: negative starting charge=   -0.006405
     NEW-OLD atomic charge density approx. for the potential
     Check: negative starting charge=   -0.006398

[...]

     energy   old            =    -329.4705093609 Ry
     energy   new            =    -329.4725030139 Ry

     CASE: energy  _new < energy  _old

[...]

     iteration #  1     ecut=    30.00 Ry     beta=0.70
     Davidson diagonalization with overlap
     c_bands:  1 eigenvalues not converged
     ethr =  1.00E-06,  avg # of iterations = 20.0

[...]

     iteration #  1     ecut=    30.00 Ry     beta=0.70
     Davidson diagonalization with overlap
     c_bands:  1 eigenvalues not converged
     ethr =  1.00E-06,  avg # of iterations = 20.0

[...]

     new trust radius        =       0.0619355337 bohr
     new conv_thr            =       0.0000000002 Ry

[...]

     WARNING: bfgs curvature condition failed, Theta= 0.740
     new trust radius        =       0.0929033005 bohr
     new conv_thr            =       0.0000000002 Ry

[...]

     WARNING: info= 13 for Hessian
     new trust radius        =       0.0269340207 bohr
     new conv_thr            =            1.0E-10 Ry

[...]

     Threshold (ethr) on eigenvalues was too large:
     Diagonalizing with lowered threshold

     Davidson diagonalization with overlap
     ethr =  3.68E-08,  avg # of iterations =  1.0

[...]

     number of scf cycles    =  47
     number of bfgs steps    =  46

     energy   old            =    -329.4916362828 Ry
     energy   new            =    -329.4916490094 Ry

     CASE: energy  _new < energy  _old

     WARNING: info= 13 for Hessian
     new trust radius        =       0.0169901014 bohr
     new conv_thr            =            1.0E-10 Ry

ATOMIC_POSITIONS (bohr)
Au      -1.834787259   1.379052189  -0.631590500
Au      -0.702282396   3.588167312   3.891405353
Au       3.031484165   1.314112565   0.766898185
Au       4.203084866   3.598767991   5.589479464
Au       7.750265624   1.430323943   2.550558498

     Writing output data file pwscf.save
     Check: negative starting charge=   -0.006451
     NEW-OLD atomic charge density approx. for the potential
     Check: negative starting charge=   -0.006448

[...]

     Self-consistent Calculation

[...]

     negative rho (up, down):  1.892E-08 0.000E+00

[...]

     total energy              =    -329.49165764 Ry
     Harris-Foulkes estimate   =    -329.49165763 Ry
     estimated scf accuracy    <          2.4E-10 Ry

     iteration # 10     ecut=    30.00 Ry     beta=0.70
     Davidson diagonalization with overlap
     ethr =  4.42E-13,  avg # of iterations =  2.0

     End of self-consistent calculation

          k = 0.0000 0.0000 0.0000 ( 22119 PWs)   bands (ev):

    -8.5160  -7.7967  -7.6558  -7.2441  -6.8477  -6.8237  -6.6222  -6.4887
    -6.3123  -6.0808  -5.9611  -5.7681  -5.7309  -5.6846  -5.4711  -5.3623
    -5.3125  -5.2513  -5.1966  -5.1883  -5.1713  -5.1264  -5.0035  -4.9217
    -4.8395  -4.7315  -4.4812  -3.7768  -2.5020  -2.1935  -0.5613  -0.1761
     0.5120   0.8911

     the Fermi energy is    -3.7437 ev

!    total energy              =    -329.49165765 Ry
     Harris-Foulkes estimate   =    -329.49165764 Ry
     estimated scf accuracy    <          4.0E-11 Ry

     The total energy is the sum of the following terms:

     one-electron contribution =    -609.23843979 Ry
     hartree contribution      =     326.04580373 Ry
     xc contribution           =     -51.40218125 Ry
     ewald contribution        =       5.10761932 Ry
     smearing contrib. (-TS)   =      -0.00445967 Ry

     convergence has been achieved in  10 iterations

     Forces acting on atoms (Ry/au):

     atom    1 type  1   force =     0.00028113    0.00004790   -0.00005724
     atom    2 type  1   force =     0.00041850    0.00091796    0.00024233
     atom    3 type  1   force =     0.00019655    0.00012737   -0.00038450
     atom    4 type  1   force =    -0.00046412   -0.00025668    0.00007858
     atom    5 type  1   force =    -0.00043206   -0.00083657    0.00012082

     Total force =     0.001598     Total SCF correction =     0.000025

     bfgs converged in  48 scf cycles and  47 bfgs steps
     (criteria: energy <  1.0E-04, force <  1.0E-03)

     End of BFGS Geometry Optimization

     Final energy   =    -329.4916576549 Ry
Begin final coordinates

ATOMIC_POSITIONS (bohr)
Au      -1.834787259   1.379052189  -0.631590500
Au      -0.702282396   3.588167312   3.891405353
Au       3.031484165   1.314112565   0.766898185
Au       4.203084866   3.598767991   5.589479464
Au       7.750265624   1.430323943   2.550558498
End final coordinates

     Writing output data file pwscf.save

     General routines

     Parallel routines

   This run was terminated on:   0: 8:46   4Aug2017

   JOB DONE.