     Program PWSCF v.6.0 (svn rev. 13079) starts on  4Aug2017 at  1: 0:34

     Current dimensions of program PWSCF are:
     Max number of different atomic species (ntypx) = 10
     Max number of k-points (npk) =  40000
     Max angular momentum in pseudopotentials (lmaxx) =  3
     Message from routine iosys:
     pot_extrapolation='second-order' not available, using 'atomic'
     Message from routine iosys:
     wfc_extrapolation='second-order' not available, using 'atomic'

     Subspace diagonalization in iterative solution of the eigenvalue problem:
     a serial algorithm will be used

     bravais-lattice index     =            1
     lattice parameter (alat)  =      20.0000  a.u.
     unit-cell volume          =    8000.0000 (a.u.)^3
     number of atoms/cell      =            5
     number of atomic types    =            1
     number of electrons       =        55.00
     number of Kohn-Sham states=           34
     kinetic-energy cutoff     =      30.0000  Ry
     charge density cutoff     =     120.0000  Ry
     convergence threshold     =      1.0E-08
     mixing beta               =       0.7000
     number of iterations used =            8  plain     mixing
     Exchange-correlation      = BLYP ( 1  3  1  3 0 0)
     nstep                     =           50

     celldm(1)=  20.000000  celldm(2)=   0.000000  celldm(3)=   0.000000
     celldm(4)=   0.000000  celldm(5)=   0.000000  celldm(6)=   0.000000

     crystal axes: (cart. coord. in units of alat)
               a(1) = (   1.000000   0.000000   0.000000 )
               a(2) = (   0.000000   1.000000   0.000000 )
               a(3) = (   0.000000   0.000000   1.000000 )

     reciprocal axes: (cart. coord. in units 2 pi/alat)
               b(1) = (  1.000000  0.000000  0.000000 )
               b(2) = (  0.000000  1.000000  0.000000 )
               b(3) = (  0.000000  0.000000  1.000000 )

     PseudoPot. # 1 for Au read from file:
     ./Au.blyp-d-hgh.UPF
     MD5 check sum: c10d8bae01f806c36a1643a1c69a8479
     Pseudo is Norm-conserving, Zval = 11.0
     Generated in analytical, separable form
     Using radial grid of 1279 points,  6 beta functions with:
                l(1) =   0
                l(2) =   0
                l(3) =   1
                l(4) =   1
                l(5) =   2
                l(6) =   2

     atomic species   valence    mass     pseudopotential
        Au            11.00    28.08600     Au( 1.00)

     No symmetry found

   Cartesian axes

     site n.     atom                  positions (alat units)
         1           Au  tau(   1) = (  -0.1114463   0.1538052  -0.0118844  )
         2           Au  tau(   2) = (   0.0153227   0.2349102   0.1963064  )
         3           Au  tau(   3) = (   0.1380605   0.0880062   0.0012208  )
         4           Au  tau(   4) = (   0.2130684   0.3112263   0.3369694  )
         5           Au  tau(   5) = (   0.3599677   0.0357629   0.1084344  )

     number of k points=     1  Marzari-Vanderbilt smearing, width (Ry)=  0.0250
                       cart. coord. in units 2pi/alat
        k(    1) = (   0.0000000   0.0000000   0.0000000), wk =   2.0000000

     Initial potential from superposition of free atoms
     Check: negative starting charge=   -0.005768

     starting charge   54.99940, renormalised to   55.00000

     negative rho (up, down):  5.768E-03 0.000E+00
     Starting wfc are   45 randomized atomic wfcs

     Self-consistent Calculation

     iteration #  1     ecut=    30.00 Ry     beta=0.70
     Davidson diagonalization with overlap
     ethr =  1.00E-02,  avg # of iterations =  2.0

     Threshold (ethr) on eigenvalues was too large:
     Diagonalizing with lowered threshold

     Davidson diagonalization with overlap
     ethr =  9.27E-04,  avg # of iterations =  2.0

     negative rho (up, down):  6.956E-04 0.000E+00

     total energy              =    -329.14662939 Ry
     Harris-Foulkes estimate   =    -329.51115875 Ry
     estimated scf accuracy    <       0.55578192 Ry

[...]

     End of self-consistent calculation

          k = 0.0000 0.0000 0.0000 ( 22119 PWs)   bands (ev):

    -8.2355  -7.6290  -7.2804  -6.7184  -6.7010  -6.3547  -6.2805  -6.0825
    -5.7441  -5.6712  -5.5865  -5.5304  -5.4912  -5.4312  -5.3613  -5.3363
    -5.0354  -4.9453  -4.9370  -4.9349  -4.8662  -4.8283  -4.8203  -4.7884
    -4.7631  -4.5074  -4.4744  -4.3290  -2.4388  -2.3398  -0.3128  -0.2175
     0.4872   0.6483

     the Fermi energy is    -4.3335 ev

!    total energy              =    -329.42444283 Ry
     Harris-Foulkes estimate   =    -329.42444282 Ry
     estimated scf accuracy    <          4.1E-09 Ry

     The total energy is the sum of the following terms:

     one-electron contribution =    -552.44530303 Ry
     hartree contribution      =     298.14103804 Ry
     xc contribution           =     -51.41187646 Ry
     ewald contribution        =     -23.75775247 Ry
     smearing contrib. (-TS)   =       0.04945110 Ry

     convergence has been achieved in  20 iterations

     Forces acting on atoms (Ry/au):

     atom    1 type  1   force =     0.01099122    0.00042108    0.00485187
     atom    2 type  1   force =     0.02267803   -0.00966244   -0.01894888
     atom    3 type  1   force =    -0.01343905    0.01253933    0.02563294
     atom    4 type  1   force =    -0.00950051   -0.01361023   -0.01309753
     atom    5 type  1   force =    -0.01072969    0.01031227    0.00156159

     Total force =     0.052698     Total SCF correction =     0.000168

     BFGS Geometry Optimization

     number of scf cycles    =   1
     number of bfgs steps    =   0

     energy   new            =    -329.4244428267 Ry

     new trust radius        =       0.0315418857 bohr
     new conv_thr            =       0.0000000100 Ry

ATOMIC_POSITIONS (bohr)
Au      -2.217935778   3.076525078  -0.232835129
Au       0.329133029   4.688541557   3.907180122
Au       2.747770951   1.772662331   0.050048942
Au       4.251867488   6.210916765   6.726290470
Au       7.188624311   0.725570269   2.170249594

     Writing output data file pwscf.save
     Check: negative starting charge=   -0.005768
     NEW-OLD atomic charge density approx. for the potential
     Check: negative starting charge=   -0.005814

[...]

     energy   old            =    -329.4244428267 Ry
     energy   new            =    -329.4270865110 Ry

     CASE: energy  _new < energy  _old

     WARNING: bfgs curvature condition failed, Theta= 0.884
     new trust radius        =       0.0346960743 bohr
     new conv_thr            =       0.0000000024 Ry

[...]

     iteration #  1     ecut=    30.00 Ry     beta=0.70
     Davidson diagonalization with overlap
     c_bands:  1 eigenvalues not converged
     ethr =  1.00E-06,  avg # of iterations = 20.0

[...]

     WARNING: info= 13 for Hessian
     new trust radius        =       0.1809337715 bohr
     new conv_thr            =       0.0000000027 Ry

[...]

     iteration #  1     ecut=    30.00 Ry     beta=0.70
     Davidson diagonalization with overlap
     c_bands:  1 eigenvalues not converged
     ethr =  1.00E-06,  avg # of iterations = 20.0

[...]

     WARNING: info= 13 for Hessian
     uphill step: resetting bfgs history

[...]

     Threshold (ethr) on eigenvalues was too large:
     Diagonalizing with lowered threshold

     Davidson diagonalization with overlap
     ethr =  6.27E-08,  avg # of iterations =  1.0

[...]

     new trust radius        =       0.0399404347 bohr
     new conv_thr            =            1.0E-10 Ry

[...]

     Self-consistent Calculation

[...]

     total energy              =    -329.48950790 Ry
     Harris-Foulkes estimate   =    -329.48950789 Ry
     estimated scf accuracy    <          2.9E-10 Ry

     iteration # 13     ecut=    30.00 Ry     beta=0.70
     Davidson diagonalization with overlap
     ethr =  5.18E-13,  avg # of iterations =  2.0

     End of self-consistent calculation

          k = 0.0000 0.0000 0.0000 ( 22119 PWs)   bands (ev):

    -8.1734  -7.5891  -7.4535  -7.2934  -7.2129  -6.5672  -6.4785  -6.4248
    -6.2880  -6.0880  -5.7990  -5.6529  -5.5810  -5.4791  -5.3720  -5.3047
    -5.2978  -5.2072  -5.1463  -5.1207  -5.0882  -4.9163  -4.5515  -4.4879
    -4.4444  -4.2473  -4.2259  -3.8233  -2.4122  -2.0318  -0.4353  -0.2444
     0.4116   0.7675

     the Fermi energy is    -3.9002 ev

!    total energy              =    -329.48950791 Ry
     Harris-Foulkes estimate   =    -329.48950790 Ry
     estimated scf accuracy    <          4.9E-11 Ry

     The total energy is the sum of the following terms:

     one-electron contribution =    -597.43152085 Ry
     hartree contribution      =     320.47194892 Ry
     xc contribution           =     -51.46523242 Ry
     ewald contribution        =      -1.08838368 Ry
     smearing contrib. (-TS)   =       0.02368012 Ry

     convergence has been achieved in  13 iterations

     Forces acting on atoms (Ry/au):

     atom    1 type  1   force =    -0.00130653    0.00168298    0.00099133
     atom    2 type  1   force =     0.00531517   -0.00034769    0.00154490
     atom    3 type  1   force =     0.00082532   -0.00245825   -0.00067883
     atom    4 type  1   force =    -0.00258448   -0.00221225   -0.00365395
     atom    5 type  1   force =    -0.00224948    0.00333521    0.00179656

     Total force =     0.009370     Total SCF correction =     0.000024

     number of scf cycles    =  50
     number of bfgs steps    =  49

     energy   old            =    -329.4893608304 Ry
     energy   new            =    -329.4895079119 Ry

     CASE: energy  _new < energy  _old

     WARNING: bfgs curvature condition failed, Theta= 0.550
     new trust radius        =       0.0838552296 bohr
     new conv_thr            =       0.0000000001 Ry

ATOMIC_POSITIONS (bohr)
Au      -2.084034575   3.319354434  -0.721149808
Au       0.790530556   4.960917591   3.158966874
Au       2.447888363   1.183678820   0.171723550
Au       4.768630673   5.401210696   6.491019907
Au       6.376444984   1.609054460   3.520373477

     Writing output data file pwscf.save
     Check: negative starting charge=   -0.005989
     NEW-OLD atomic charge density approx. for the potential
     Check: negative starting charge=   -0.005985

     negative rho (up, down):  1.854E-03 0.000E+00

     Writing output data file pwscf.save

     General routines

     Parallel routines

   This run was terminated on:   1: 3: 8   4Aug2017

   JOB DONE.