     Program PWSCF v.6.0 (svn rev. 13079) starts on  4Aug2017 at  3: 2: 4

     Current dimensions of program PWSCF are:
     Max number of different atomic species (ntypx) = 10
     Max number of k-points (npk) =  40000
     Max angular momentum in pseudopotentials (lmaxx) =  3
     Message from routine iosys:
     pot_extrapolation='second-order' not available, using 'atomic'
     Message from routine iosys:
     wfc_extrapolation='second-order' not available, using 'atomic'

     Subspace diagonalization in iterative solution of the eigenvalue problem:
     a serial algorithm will be used

     bravais-lattice index     =            1
     lattice parameter (alat)  =      20.0000  a.u.
     unit-cell volume          =    8000.0000 (a.u.)^3
     number of atoms/cell      =            5
     number of atomic types    =            1
     number of electrons       =        55.00
     number of Kohn-Sham states=           34
     kinetic-energy cutoff     =      30.0000  Ry
     charge density cutoff     =     120.0000  Ry
     convergence threshold     =      1.0E-08
     mixing beta               =       0.7000
     number of iterations used =            8  plain     mixing
     Exchange-correlation      = BLYP ( 1  3  1  3 0 0)
     nstep                     =           50

     celldm(1)=  20.000000  celldm(2)=   0.000000  celldm(3)=   0.000000
     celldm(4)=   0.000000  celldm(5)=   0.000000  celldm(6)=   0.000000

     crystal axes: (cart. coord. in units of alat)
               a(1) = (   1.000000   0.000000   0.000000 )
               a(2) = (   0.000000   1.000000   0.000000 )
               a(3) = (   0.000000   0.000000   1.000000 )

     reciprocal axes: (cart. coord. in units 2 pi/alat)
               b(1) = (  1.000000  0.000000  0.000000 )
               b(2) = (  0.000000  1.000000  0.000000 )
               b(3) = (  0.000000  0.000000  1.000000 )

     PseudoPot. # 1 for Au read from file:
     ./Au.blyp-d-hgh.UPF
     MD5 check sum: c10d8bae01f806c36a1643a1c69a8479
     Pseudo is Norm-conserving, Zval = 11.0
     Generated in analytical, separable form
     Using radial grid of 1279 points,  6 beta functions with:
                l(1) =   0
                l(2) =   0
                l(3) =   1
                l(4) =   1
                l(5) =   2
                l(6) =   2

     atomic species   valence    mass     pseudopotential
        Au            11.00    28.08600     Au( 1.00)

     No symmetry found

   Cartesian axes

     site n.     atom                  positions (alat units)
         1           Au  tau(   1) = (  -0.0923165   0.1167795  -0.0237828  )
         2           Au  tau(   2) = (   0.0184809   0.1277100   0.2066265  )
         3           Au  tau(   3) = (   0.1482171   0.0805801  -0.0007667  )
         4           Au  tau(   4) = (   0.2403707   0.2177801   0.3085039  )
         5           Au  tau(   5) = (   0.3222899   0.0405249   0.1280634  )

     number of k points=     1  Marzari-Vanderbilt smearing, width (Ry)=  0.0250
                       cart. coord. in units 2pi/alat
        k(    1) = (   0.0000000   0.0000000   0.0000000), wk =   2.0000000

     Initial potential from superposition of free atoms
     Check: negative starting charge=   -0.006342

     starting charge   54.99940, renormalised to   55.00000

     negative rho (up, down):  6.342E-03 0.000E+00
     Starting wfc are   45 randomized atomic wfcs

     Self-consistent Calculation

     iteration #  1     ecut=    30.00 Ry     beta=0.70
     Davidson diagonalization with overlap
     ethr =  1.00E-02,  avg # of iterations =  3.0

     Threshold (ethr) on eigenvalues was too large:
     Diagonalizing with lowered threshold

     Davidson diagonalization with overlap
     ethr =  4.93E-04,  avg # of iterations =  8.0

     negative rho (up, down):  8.037E-04 0.000E+00

     total energy              =    -329.28321094 Ry
     Harris-Foulkes estimate   =    -329.47448696 Ry
     estimated scf accuracy    <       0.32121664 Ry

[...]

     End of self-consistent calculation

          k = 0.0000 0.0000 0.0000 ( 22119 PWs)   bands (ev):

    -8.9432  -8.2893  -8.0222  -7.4210  -7.2930  -7.0705  -6.7743  -6.5898
    -6.4091  -6.1031  -5.8661  -5.8508  -5.7676  -5.5835  -5.5647  -5.5171
    -5.3222  -5.2944  -5.2219  -5.1567  -5.1015  -5.0217  -4.8826  -4.7674
    -4.5744  -4.4233  -4.1504  -3.8403  -2.4818  -1.8864  -0.4245  -0.2198
     0.3680   0.7480

     the Fermi energy is    -3.8399 ev

!    total energy              =    -329.41040167 Ry
     Harris-Foulkes estimate   =    -329.41040168 Ry
     estimated scf accuracy    <          1.5E-09 Ry

     The total energy is the sum of the following terms:

     one-electron contribution =    -625.14833694 Ry
     hartree contribution      =     333.97894591 Ry
     xc contribution           =     -51.52637559 Ry
     ewald contribution        =      13.27829434 Ry
     smearing contrib. (-TS)   =       0.00707061 Ry

     convergence has been achieved in  13 iterations

     Forces acting on atoms (Ry/au):

     atom    1 type  1   force =    -0.04406132    0.00274595   -0.01033788
     atom    2 type  1   force =    -0.00623812    0.01416695    0.02105066
     atom    3 type  1   force =    -0.12695858    0.02872362   -0.13654198
     atom    4 type  1   force =    -0.00331601   -0.01572094   -0.00939571
     atom    5 type  1   force =     0.18057403   -0.02991557    0.13522492

     Total force =     0.300766     Total SCF correction =     0.000161

     BFGS Geometry Optimization

     number of scf cycles    =   1
     number of bfgs steps    =   0

     energy   new            =    -329.4104016687 Ry

     new trust radius        =       0.2275691136 bohr
     new conv_thr            =       0.0000000100 Ry

ATOMIC_POSITIONS (bohr)
Au      -1.890391320   2.338334948  -0.485993878
Au       0.363379879   2.568366949   4.153580660
Au       2.837384421   1.640325619  -0.151876983
Au       4.804097985   4.339880059   6.160682285
Au       6.626372035   0.780581426   2.696493916

     Writing output data file pwscf.save
     Check: negative starting charge=   -0.006342
     NEW-OLD atomic charge density approx. for the potential
     Check: negative starting charge=   -0.006322

[...]

     energy   old            =    -329.4104016687 Ry
     energy   new            =    -329.4599906993 Ry

     CASE: energy  _new < energy  _old

[...]

     WARNING: bfgs curvature condition failed, Theta= 0.780
     new trust radius        =       0.0998652664 bohr
     new conv_thr            =       0.0000000005 Ry

[...]

     iteration #  1     ecut=    30.00 Ry     beta=0.70
     Davidson diagonalization with overlap
     c_bands:  1 eigenvalues not converged
     ethr =  1.00E-06,  avg # of iterations = 20.0

[...]

     iteration #  1     ecut=    30.00 Ry     beta=0.70
     Davidson diagonalization with overlap
     c_bands:  1 eigenvalues not converged
     ethr =  1.00E-06,  avg # of iterations = 20.0

[...]

     WARNING: info= 15 for Hessian
     new trust radius        =       0.0249885491 bohr
     new conv_thr            =            1.0E-10 Ry

[...]

     WARNING: info= 15 for Hessian

     WARNING: bfgs curvature condition failed, Theta= 0.434
     uphill step: resetting bfgs history

[...]

     WARNING: bfgs curvature condition failed, Theta= 0.932
     new trust radius        =       0.0115146135 bohr
     new conv_thr            =       0.0000000003 Ry

[...]

     Self-consistent Calculation

[...]

     Threshold (ethr) on eigenvalues was too large:
     Diagonalizing with lowered threshold

     Davidson diagonalization with overlap
     ethr =  4.26E-08,  avg # of iterations =  1.0

[...]

     total energy              =    -329.48925523 Ry
     Harris-Foulkes estimate   =    -329.48925524 Ry
     estimated scf accuracy    <          1.1E-09 Ry

     iteration #  9     ecut=    30.00 Ry     beta=0.70
     Davidson diagonalization with overlap
     ethr =  1.96E-12,  avg # of iterations =  2.0

     End of self-consistent calculation

          k = 0.0000 0.0000 0.0000 ( 22119 PWs)   bands (ev):

    -8.3731  -7.6646  -7.6025  -7.2084  -7.0887  -6.7443  -6.5690  -6.4479
    -6.2977  -6.0248  -5.9515  -5.7184  -5.6735  -5.6353  -5.4336  -5.3674
    -5.3130  -5.2459  -5.2195  -5.1907  -5.1605  -5.1201  -4.9925  -4.9629
    -4.9048  -4.5591  -4.5077  -3.7742  -2.4891  -2.1588  -0.4939  -0.2070
     0.3556   0.7622

     the Fermi energy is    -3.7444 ev

!    total energy              =    -329.48925522 Ry
     Harris-Foulkes estimate   =    -329.48925523 Ry
     estimated scf accuracy    <          1.7E-10 Ry

     The total energy is the sum of the following terms:

     one-electron contribution =    -601.39712669 Ry
     hartree contribution      =     322.16092322 Ry
     xc contribution           =     -51.39005751 Ry
     ewald contribution        =       1.14052586 Ry
     smearing contrib. (-TS)   =      -0.00352010 Ry

     convergence has been achieved in   9 iterations

     Forces acting on atoms (Ry/au):

     atom    1 type  1   force =     0.00203584   -0.00053076    0.00483047
     atom    2 type  1   force =     0.00430090    0.00032695   -0.00194734
     atom    3 type  1   force =    -0.00182533   -0.00066793   -0.00541083
     atom    4 type  1   force =     0.00078190   -0.00166469   -0.00270255
     atom    5 type  1   force =    -0.00529332    0.00253643    0.00523024

     Total force =     0.012478     Total SCF correction =     0.000052

     number of scf cycles    =  50
     number of bfgs steps    =  49

     energy   old            =    -329.4890107773 Ry
     energy   new            =    -329.4892552201 Ry

     CASE: energy  _new < energy  _old

     new trust radius        =       0.0172719203 bohr
     new conv_thr            =       0.0000000002 Ry

ATOMIC_POSITIONS (bohr)
Au      -1.851608946   3.216206390  -0.684476979
Au       0.976225988   3.446990949   3.567789567
Au       2.605482195   0.619497644  -0.498932033
Au       4.605233654   3.405781174   7.072355706
Au       6.405510109   0.979012843   2.916149739

     Writing output data file pwscf.save
     Check: negative starting charge=   -0.006268
     NEW-OLD atomic charge density approx. for the potential
     Check: negative starting charge=   -0.006274

     negative rho (up, down):  4.067E-05 0.000E+00

     Writing output data file pwscf.save

     General routines

     Parallel routines

   This run was terminated on:   3: 4:20   4Aug2017

   JOB DONE.