     Program PWSCF v.6.0 (svn rev. 13079) starts on  3Aug2017 at 21:20:42

     Current dimensions of program PWSCF are:
     Max number of different atomic species (ntypx) = 10
     Max number of k-points (npk) =  40000
     Max angular momentum in pseudopotentials (lmaxx) =  3
     Message from routine iosys:
     pot_extrapolation='second-order' not available, using 'atomic'
     Message from routine iosys:
     wfc_extrapolation='second-order' not available, using 'atomic'

     Subspace diagonalization in iterative solution of the eigenvalue problem:
     a serial algorithm will be used

     bravais-lattice index     =            1
     lattice parameter (alat)  =      20.0000  a.u.
     unit-cell volume          =    8000.0000 (a.u.)^3
     number of atoms/cell      =            5
     number of atomic types    =            1
     number of electrons       =        55.00
     number of Kohn-Sham states=           34
     kinetic-energy cutoff     =      30.0000  Ry
     charge density cutoff     =     120.0000  Ry
     convergence threshold     =      1.0E-08
     mixing beta               =       0.7000
     number of iterations used =            8  plain     mixing
     Exchange-correlation      = BLYP ( 1  3  1  3 0 0)
     nstep                     =           50

     celldm(1)=  20.000000  celldm(2)=   0.000000  celldm(3)=   0.000000
     celldm(4)=   0.000000  celldm(5)=   0.000000  celldm(6)=   0.000000

     crystal axes: (cart. coord. in units of alat)
               a(1) = (   1.000000   0.000000   0.000000 )
               a(2) = (   0.000000   1.000000   0.000000 )
               a(3) = (   0.000000   0.000000   1.000000 )

     reciprocal axes: (cart. coord. in units 2 pi/alat)
               b(1) = (  1.000000  0.000000  0.000000 )
               b(2) = (  0.000000  1.000000  0.000000 )
               b(3) = (  0.000000  0.000000  1.000000 )

     PseudoPot. # 1 for Au read from file:
     ./Au.blyp-d-hgh.UPF
     MD5 check sum: c10d8bae01f806c36a1643a1c69a8479
     Pseudo is Norm-conserving, Zval = 11.0
     Generated in analytical, separable form
     Using radial grid of 1279 points,  6 beta functions with:
                l(1) =   0
                l(2) =   0
                l(3) =   1
                l(4) =   1
                l(5) =   2
                l(6) =   2

     atomic species   valence    mass     pseudopotential
        Au            11.00    28.08600     Au( 1.00)

     No symmetry found

   Cartesian axes

     site n.     atom                  positions (alat units)
         1           Au  tau(   1) = (  -0.1132102   0.1073602  -0.0260249  )
         2           Au  tau(   2) = (  -0.0077755   0.1248825   0.2051672  )
         3           Au  tau(   3) = (   0.1387318   0.0841493   0.0017366  )
         4           Au  tau(   4) = (   0.2166923   0.2046690   0.2858000  )
         5           Au  tau(   5) = (   0.3533768   0.0578268   0.1194371  )

     number of k points=     1  Marzari-Vanderbilt smearing, width (Ry)=  0.0250
                       cart. coord. in units 2pi/alat
        k(    1) = (   0.0000000   0.0000000   0.0000000), wk =   2.0000000

     Initial potential from superposition of free atoms
     Check: negative starting charge=   -0.006432

     starting charge   54.99940, renormalised to   55.00000

     negative rho (up, down):  6.432E-03 0.000E+00
     Starting wfc are   45 randomized atomic wfcs

     Self-consistent Calculation

     iteration #  1     ecut=    30.00 Ry     beta=0.70
     Davidson diagonalization with overlap
     ethr =  1.00E-02,  avg # of iterations =  3.0

     Threshold (ethr) on eigenvalues was too large:
     Diagonalizing with lowered threshold

     Davidson diagonalization with overlap
     ethr =  4.03E-04,  avg # of iterations =  7.0

     negative rho (up, down):  8.722E-04 0.000E+00

     total energy              =    -329.36528351 Ry
     Harris-Foulkes estimate   =    -329.53418179 Ry
     estimated scf accuracy    <       0.28232723 Ry

[...]

     End of self-consistent calculation

          k = 0.0000 0.0000 0.0000 ( 22119 PWs)   bands (ev):

    -8.4109  -7.7488  -7.6534  -7.3661  -7.0306  -6.7578  -6.6674  -6.5210
    -6.1946  -6.0499  -5.9320  -5.7299  -5.6608  -5.5737  -5.5514  -5.4580
    -5.2289  -5.1839  -5.1775  -5.1377  -5.1217  -5.0129  -4.9194  -4.8944
    -4.8611  -4.5072  -4.3286  -3.7488  -2.4433  -2.1681  -0.4338  -0.2182
     0.4309   0.7224

     the Fermi energy is    -3.7447 ev

!    total energy              =    -329.47696568 Ry
     Harris-Foulkes estimate   =    -329.47696568 Ry
     estimated scf accuracy    <          3.1E-09 Ry

     The total energy is the sum of the following terms:

     one-electron contribution =    -612.57424515 Ry
     hartree contribution      =     327.80550351 Ry
     xc contribution           =     -51.44185093 Ry
     ewald contribution        =       6.73186011 Ry
     smearing contrib. (-TS)   =       0.00176677 Ry

     convergence has been achieved in  12 iterations

     Forces acting on atoms (Ry/au):

     atom    1 type  1   force =    -0.00431974   -0.00194153   -0.00824045
     atom    2 type  1   force =    -0.01793455    0.00562318    0.01075279
     atom    3 type  1   force =    -0.00914043   -0.00122694   -0.01593943
     atom    4 type  1   force =     0.01432741   -0.00492793    0.00086351
     atom    5 type  1   force =     0.01706732    0.00247323    0.01256358

     Total force =     0.039798     Total SCF correction =     0.000229

     BFGS Geometry Optimization

     number of scf cycles    =   1
     number of bfgs steps    =   0

     energy   new            =    -329.4769656813 Ry

     new trust radius        =       0.0216538895 bohr
     new conv_thr            =       0.0000000100 Ry

ATOMIC_POSITIONS (bohr)
Au      -2.268524743   2.145262467  -0.528738450
Au      -0.173444555   2.503274177   4.114096793
Au       2.765495567   1.681760057   0.018793574
Au       4.348174409   4.088453072   5.716862506
Au       7.084603321   1.159008227   2.401304577

     Writing output data file pwscf.save
     Check: negative starting charge=   -0.006432
     NEW-OLD atomic charge density approx. for the potential
     Check: negative starting charge=   -0.006425

[...]

     energy   old            =    -329.4769656813 Ry
     energy   new            =    -329.4783549298 Ry

     CASE: energy  _new < energy  _old

[...]

     iteration #  1     ecut=    30.00 Ry     beta=0.70
     Davidson diagonalization with overlap
     c_bands:  1 eigenvalues not converged
     ethr =  1.00E-06,  avg # of iterations = 20.0

[...]

     iteration #  1     ecut=    30.00 Ry     beta=0.70
     Davidson diagonalization with overlap
     c_bands:  1 eigenvalues not converged
     ethr =  1.00E-06,  avg # of iterations = 20.0

[...]

     WARNING: bfgs curvature condition failed, Theta= 0.423
     new trust radius        =       0.0514194860 bohr
     new conv_thr            =            1.0E-10 Ry

[...]

     Threshold (ethr) on eigenvalues was too large:
     Diagonalizing with lowered threshold

     Davidson diagonalization with overlap
     ethr =  6.04E-08,  avg # of iterations =  1.0

[...]

     new trust radius        =       0.0174996587 bohr
     new conv_thr            =            1.0E-10 Ry

[...]

     WARNING: bfgs curvature condition failed, Theta= 0.694
     new trust radius        =       0.0393742320 bohr
     new conv_thr            =            1.0E-10 Ry

[...]

     WARNING: info= 13 for Hessian
     new trust radius        =       0.0181631427 bohr
     new conv_thr            =            1.0E-10 Ry

[...]

     Self-consistent Calculation

[...]

     total energy              =    -329.49237530 Ry
     Harris-Foulkes estimate   =    -329.49237528 Ry
     estimated scf accuracy    <          3.2E-10 Ry

     iteration # 10     ecut=    30.00 Ry     beta=0.70
     Davidson diagonalization with overlap
     ethr =  5.89E-13,  avg # of iterations =  2.0

     End of self-consistent calculation

          k = 0.0000 0.0000 0.0000 ( 22119 PWs)   bands (ev):

    -8.5284  -7.7976  -7.6454  -7.2329  -6.8514  -6.8277  -6.6331  -6.4848
    -6.3001  -6.0821  -5.9631  -5.7761  -5.7348  -5.6865  -5.4593  -5.3548
    -5.3113  -5.2478  -5.1976  -5.1816  -5.1710  -5.1207  -4.9986  -4.9246
    -4.8396  -4.7305  -4.4779  -3.7743  -2.4679  -2.1916  -0.5480  -0.1886
     0.5266   0.8371

     the Fermi energy is    -3.7413 ev

!    total energy              =    -329.49237530 Ry
     Harris-Foulkes estimate   =    -329.49237530 Ry
     estimated scf accuracy    <          3.7E-11 Ry

     The total energy is the sum of the following terms:

     one-electron contribution =    -608.64532156 Ry
     hartree contribution      =     325.75202420 Ry
     xc contribution           =     -51.40285439 Ry
     ewald contribution        =       4.80823083 Ry
     smearing contrib. (-TS)   =      -0.00445438 Ry

     convergence has been achieved in  10 iterations

     Forces acting on atoms (Ry/au):

     atom    1 type  1   force =     0.00045231   -0.00092771   -0.00100703
     atom    2 type  1   force =     0.00221597    0.00220913    0.00180377
     atom    3 type  1   force =    -0.00628392   -0.00037999   -0.00261380
     atom    4 type  1   force =    -0.00084202    0.00014765    0.00040681
     atom    5 type  1   force =     0.00445765   -0.00104908    0.00141025

     Total force =     0.009244     Total SCF correction =     0.000028

     number of scf cycles    =  50
     number of bfgs steps    =  49

     energy   old            =    -329.4923479004 Ry
     energy   new            =    -329.4923753025 Ry

     CASE: energy  _new < energy  _old

     WARNING: info= 13 for Hessian
     new trust radius        =       0.0172827605 bohr
     new conv_thr            =            1.0E-10 Ry

ATOMIC_POSITIONS (bohr)
Au      -1.915292856   2.049878437  -0.864632525
Au      -0.798089802   3.784984964   3.850766846
Au       2.880206791   1.434854473   0.635342510
Au       4.087641027   3.345467454   5.575495437
Au       7.501838840   0.962572672   2.525346732

     Writing output data file pwscf.save
     Check: negative starting charge=   -0.006400
     NEW-OLD atomic charge density approx. for the potential
     Check: negative starting charge=   -0.006404

     negative rho (up, down):  5.749E-05 0.000E+00

     Writing output data file pwscf.save

     General routines

     Parallel routines

   This run was terminated on:  21:23: 2   3Aug2017

   JOB DONE.