     Program PWSCF v.6.0 (svn rev. 13079) starts on  4Aug2017 at  3:43:34

     Current dimensions of program PWSCF are:
     Max number of different atomic species (ntypx) = 10
     Max number of k-points (npk) =  40000
     Max angular momentum in pseudopotentials (lmaxx) =  3
     Message from routine iosys:
     pot_extrapolation='second-order' not available, using 'atomic'
     Message from routine iosys:
     wfc_extrapolation='second-order' not available, using 'atomic'

     Subspace diagonalization in iterative solution of the eigenvalue problem:
     a serial algorithm will be used

     bravais-lattice index     =            1
     lattice parameter (alat)  =      20.0000  a.u.
     unit-cell volume          =    8000.0000 (a.u.)^3
     number of atoms/cell      =            5
     number of atomic types    =            1
     number of electrons       =        55.00
     number of Kohn-Sham states=           34
     kinetic-energy cutoff     =      30.0000  Ry
     charge density cutoff     =     120.0000  Ry
     convergence threshold     =      1.0E-08
     mixing beta               =       0.7000
     number of iterations used =            8  plain     mixing
     Exchange-correlation      = BLYP ( 1  3  1  3 0 0)
     nstep                     =           50

     celldm(1)=  20.000000  celldm(2)=   0.000000  celldm(3)=   0.000000
     celldm(4)=   0.000000  celldm(5)=   0.000000  celldm(6)=   0.000000

     crystal axes: (cart. coord. in units of alat)
               a(1) = (   1.000000   0.000000   0.000000 )
               a(2) = (   0.000000   1.000000   0.000000 )
               a(3) = (   0.000000   0.000000   1.000000 )

     reciprocal axes: (cart. coord. in units 2 pi/alat)
               b(1) = (  1.000000  0.000000  0.000000 )
               b(2) = (  0.000000  1.000000  0.000000 )
               b(3) = (  0.000000  0.000000  1.000000 )

     PseudoPot. # 1 for Au read from file:
     ./Au.blyp-d-hgh.UPF
     MD5 check sum: c10d8bae01f806c36a1643a1c69a8479
     Pseudo is Norm-conserving, Zval = 11.0
     Generated in analytical, separable form
     Using radial grid of 1279 points,  6 beta functions with:
                l(1) =   0
                l(2) =   0
                l(3) =   1
                l(4) =   1
                l(5) =   2
                l(6) =   2

     atomic species   valence    mass     pseudopotential
        Au            11.00    28.08600     Au( 1.00)

     No symmetry found

   Cartesian axes

     site n.     atom                  positions (alat units)
         1           Au  tau(   1) = (  -0.1173126   0.1041434  -0.0161065  )
         2           Au  tau(   2) = (  -0.0023004   0.1627081   0.2089504  )
         3           Au  tau(   3) = (   0.1364906   0.0606507   0.0038977  )
         4           Au  tau(   4) = (   0.2271717   0.2220702   0.2924704  )
         5           Au  tau(   5) = (   0.3573752   0.0446268   0.1246954  )

     number of k points=     1  Marzari-Vanderbilt smearing, width (Ry)=  0.0250
                       cart. coord. in units 2pi/alat
        k(    1) = (   0.0000000   0.0000000   0.0000000), wk =   2.0000000

     Initial potential from superposition of free atoms
     Check: negative starting charge=   -0.006160

     starting charge   54.99940, renormalised to   55.00000

     negative rho (up, down):  6.160E-03 0.000E+00
     Starting wfc are   45 randomized atomic wfcs

     Self-consistent Calculation

     iteration #  1     ecut=    30.00 Ry     beta=0.70
     Davidson diagonalization with overlap
     ethr =  1.00E-02,  avg # of iterations =  3.0

     Threshold (ethr) on eigenvalues was too large:
     Diagonalizing with lowered threshold

     Davidson diagonalization with overlap
     ethr =  4.05E-04,  avg # of iterations =  7.0

     negative rho (up, down):  8.242E-04 0.000E+00

     total energy              =    -329.36213807 Ry
     Harris-Foulkes estimate   =    -329.52771527 Ry
     estimated scf accuracy    <       0.28236427 Ry

[...]

     End of self-consistent calculation

          k = 0.0000 0.0000 0.0000 ( 22119 PWs)   bands (ev):

    -8.0119  -7.4998  -7.3963  -7.1387  -6.7432  -6.5268  -6.4562  -6.2820
    -6.1901  -5.9710  -5.7910  -5.6112  -5.5914  -5.3815  -5.3609  -5.3574
    -5.3240  -5.3084  -5.2038  -5.1468  -5.0296  -4.9521  -4.6468  -4.5905
    -4.5379  -4.3663  -4.3508  -4.0194  -2.4127  -2.2090  -0.4047  -0.3129
     0.4834   0.8055

     the Fermi energy is    -4.0672 ev

!    total energy              =    -329.47103682 Ry
     Harris-Foulkes estimate   =    -329.47103682 Ry
     estimated scf accuracy    <          5.4E-09 Ry

     The total energy is the sum of the following terms:

     one-electron contribution =    -590.76694611 Ry
     hartree contribution      =     317.15175223 Ry
     xc contribution           =     -51.41501685 Ry
     ewald contribution        =      -4.46432205 Ry
     smearing contrib. (-TS)   =       0.02349596 Ry

     convergence has been achieved in  64 iterations

     Forces acting on atoms (Ry/au):

     atom    1 type  1   force =     0.01265089    0.00042398    0.00822397
     atom    2 type  1   force =    -0.00592126   -0.00787572   -0.02799496
     atom    3 type  1   force =    -0.02103218    0.00810174    0.01432272
     atom    4 type  1   force =     0.02220648   -0.01774738   -0.01286670
     atom    5 type  1   force =    -0.00790393    0.01709738    0.01831497

     Total force =     0.059040     Total SCF correction =     0.000282

     BFGS Geometry Optimization

     number of scf cycles    =   1
     number of bfgs steps    =   0

     energy   new            =    -329.4710368237 Ry

     new trust radius        =       0.0312033534 bohr
     new conv_thr            =       0.0000000100 Ry

ATOMIC_POSITIONS (bohr)
Au      -2.333600107   2.083292980  -0.313905031
Au      -0.051929260   3.246287279   4.151014044
Au       2.708778818   1.221116743   0.092277719
Au       4.565641479   4.423656616   5.836541302
Au       7.139601071   0.909633382   2.512221966

     Writing output data file pwscf.save
     Check: negative starting charge=   -0.006160
     NEW-OLD atomic charge density approx. for the potential
     Check: negative starting charge=   -0.006194

[...]

     energy   old            =    -329.4710368237 Ry
     energy   new            =    -329.4742371541 Ry

     CASE: energy  _new < energy  _old

     WARNING: bfgs curvature condition failed, Theta= 0.956
     new trust radius        =       0.0343236887 bohr
     new conv_thr            =       0.0000000022 Ry

[...]

     WARNING: bfgs curvature condition failed, Theta= 0.850
     new trust radius        =       0.0306256506 bohr
     new conv_thr            =       0.0000000004 Ry

[...]

     iteration #  1     ecut=    30.00 Ry     beta=0.70
     Davidson diagonalization with overlap
     c_bands:  1 eigenvalues not converged
     ethr =  1.00E-06,  avg # of iterations = 20.0

[...]

     CASE: energy  _new < energy  _old

[...]

     CASE: energy  _new > energy  _old

[...]

     iteration #  1     ecut=    30.00 Ry     beta=0.70
     Davidson diagonalization with overlap
     c_bands:  1 eigenvalues not converged
     ethr =  1.00E-06,  avg # of iterations = 20.0

[...]

     new trust radius        =       0.0000001635 bohr

     trust_radius < trust_radius_min

     resetting bfgs history

     new conv_thr            =       0.0000000011 Ry

[...]

     Threshold (ethr) on eigenvalues was too large:
     Diagonalizing with lowered threshold

     Davidson diagonalization with overlap
     ethr =  6.41E-09,  avg # of iterations =  2.0

[...]

     new trust radius        =       0.0000002146 bohr

     trust_radius < trust_radius_min

     resetting bfgs history

     new conv_thr            =       0.0000000011 Ry

[...]

     Self-consistent Calculation

[...]

     total energy              =    -329.48645529 Ry
     Harris-Foulkes estimate   =    -329.48645529 Ry
     estimated scf accuracy    <          2.5E-09 Ry

     iteration #  9     ecut=    30.00 Ry     beta=0.70
     Davidson diagonalization with overlap
     ethr =  4.49E-12,  avg # of iterations =  2.0

     End of self-consistent calculation

          k = 0.0000 0.0000 0.0000 ( 22119 PWs)   bands (ev):

    -8.6197  -7.8610  -7.5624  -7.1936  -6.9300  -6.8757  -6.6236  -6.5110
    -6.1967  -6.1162  -6.0503  -5.7443  -5.7343  -5.6647  -5.4407  -5.3826
    -5.3021  -5.2266  -5.2166  -5.1814  -5.1650  -5.1173  -4.9825  -4.9651
    -4.9383  -4.6019  -4.5487  -3.7202  -2.4748  -2.2437  -0.5321  -0.1707
     0.4953   0.7840

     the Fermi energy is    -3.6791 ev

!    total energy              =    -329.48645530 Ry
     Harris-Foulkes estimate   =    -329.48645529 Ry
     estimated scf accuracy    <          2.0E-10 Ry

     The total energy is the sum of the following terms:

     one-electron contribution =    -608.09921976 Ry
     hartree contribution      =     325.46857041 Ry
     xc contribution           =     -51.40404994 Ry
     ewald contribution        =       4.55459892 Ry
     smearing contrib. (-TS)   =      -0.00635493 Ry

     convergence has been achieved in   9 iterations

     Forces acting on atoms (Ry/au):

     atom    1 type  1   force =     0.00012441   -0.00089769   -0.00420208
     atom    2 type  1   force =     0.00827667    0.00330990    0.01393260
     atom    3 type  1   force =    -0.01486304   -0.00227976   -0.00814092
     atom    4 type  1   force =    -0.01656480    0.00404570   -0.00762885
     atom    5 type  1   force =     0.02302676   -0.00417815    0.00603925

     Total force =     0.038956     Total SCF correction =     0.000060

     number of scf cycles    =  50
     number of bfgs steps    =  24

     energy   old            =    -329.4913168037 Ry
     energy   new            =    -329.4864553006 Ry

     CASE: energy  _new > energy  _old

     new trust radius        =       0.0001869660 bohr
     new conv_thr            =       0.0000000011 Ry

ATOMIC_POSITIONS (bohr)
Au      -2.142696724   1.772584639  -0.478862663
Au      -0.465985322   4.184923991   3.713588083
Au       2.761444150   1.330627770   0.837866747
Au       4.464999597   3.438576276   5.850394091
Au       7.410730300   1.157274324   2.355163743

     Writing output data file pwscf.save
     Check: negative starting charge=   -0.006379
     NEW-OLD atomic charge density approx. for the potential
     Check: negative starting charge=   -0.006379

     negative rho (up, down):  7.457E-08 0.000E+00

     Writing output data file pwscf.save

     General routines

     Parallel routines

   This run was terminated on:   3:46: 0   4Aug2017

   JOB DONE.