     Program PWSCF v.6.0 (svn rev. 13079) starts on  4Aug2017 at  3:15:21

     Current dimensions of program PWSCF are:
     Max number of different atomic species (ntypx) = 10
     Max number of k-points (npk) =  40000
     Max angular momentum in pseudopotentials (lmaxx) =  3
     Message from routine iosys:
     pot_extrapolation='second-order' not available, using 'atomic'
     Message from routine iosys:
     wfc_extrapolation='second-order' not available, using 'atomic'

     Subspace diagonalization in iterative solution of the eigenvalue problem:
     a serial algorithm will be used

     bravais-lattice index     =            1
     lattice parameter (alat)  =      20.0000  a.u.
     unit-cell volume          =    8000.0000 (a.u.)^3
     number of atoms/cell      =            5
     number of atomic types    =            1
     number of electrons       =        55.00
     number of Kohn-Sham states=           34
     kinetic-energy cutoff     =      30.0000  Ry
     charge density cutoff     =     120.0000  Ry
     convergence threshold     =      1.0E-08
     mixing beta               =       0.7000
     number of iterations used =            8  plain     mixing
     Exchange-correlation      = BLYP ( 1  3  1  3 0 0)
     nstep                     =           50

     celldm(1)=  20.000000  celldm(2)=   0.000000  celldm(3)=   0.000000
     celldm(4)=   0.000000  celldm(5)=   0.000000  celldm(6)=   0.000000

     crystal axes: (cart. coord. in units of alat)
               a(1) = (   1.000000   0.000000   0.000000 )
               a(2) = (   0.000000   1.000000   0.000000 )
               a(3) = (   0.000000   0.000000   1.000000 )

     reciprocal axes: (cart. coord. in units 2 pi/alat)
               b(1) = (  1.000000  0.000000  0.000000 )
               b(2) = (  0.000000  1.000000  0.000000 )
               b(3) = (  0.000000  0.000000  1.000000 )

     PseudoPot. # 1 for Au read from file:
     ./Au.blyp-d-hgh.UPF
     MD5 check sum: c10d8bae01f806c36a1643a1c69a8479
     Pseudo is Norm-conserving, Zval = 11.0
     Generated in analytical, separable form
     Using radial grid of 1279 points,  6 beta functions with:
                l(1) =   0
                l(2) =   0
                l(3) =   1
                l(4) =   1
                l(5) =   2
                l(6) =   2

     atomic species   valence    mass     pseudopotential
        Au            11.00    28.08600     Au( 1.00)

     No symmetry found

   Cartesian axes

     site n.     atom                  positions (alat units)
         1           Au  tau(   1) = (  -0.1041687   0.0375103  -0.0183197  )
         2           Au  tau(   2) = (   0.0071358   0.1442211   0.2096347  )
         3           Au  tau(   3) = (   0.1438379   0.0269852   0.0122425  )
         4           Au  tau(   4) = (   0.2137951   0.2498451   0.2974359  )
         5           Au  tau(   5) = (   0.3228302   0.0597492   0.1428988  )

     number of k points=     1  Marzari-Vanderbilt smearing, width (Ry)=  0.0250
                       cart. coord. in units 2pi/alat
        k(    1) = (   0.0000000   0.0000000   0.0000000), wk =   2.0000000

     Initial potential from superposition of free atoms
     Check: negative starting charge=   -0.006146

     starting charge   54.99940, renormalised to   55.00000

     negative rho (up, down):  6.146E-03 0.000E+00
     Starting wfc are   45 randomized atomic wfcs

     Self-consistent Calculation

     iteration #  1     ecut=    30.00 Ry     beta=0.70
     Davidson diagonalization with overlap
     ethr =  1.00E-02,  avg # of iterations =  3.0

     Threshold (ethr) on eigenvalues was too large:
     Diagonalizing with lowered threshold

     Davidson diagonalization with overlap
     ethr =  5.10E-04,  avg # of iterations =  3.0

     negative rho (up, down):  7.799E-04 0.000E+00

     total energy              =    -329.29393358 Ry
     Harris-Foulkes estimate   =    -329.49172353 Ry
     estimated scf accuracy    <       0.32962178 Ry

[...]

     End of self-consistent calculation

          k = 0.0000 0.0000 0.0000 ( 22119 PWs)   bands (ev):

    -8.7218  -7.8854  -7.8031  -7.3990  -7.1879  -7.0937  -6.5829  -6.5062
    -6.4461  -6.0988  -5.8953  -5.7704  -5.6770  -5.4862  -5.4667  -5.3768
    -5.3476  -5.3335  -5.2036  -5.1610  -5.0994  -4.9298  -4.7365  -4.5922
    -4.5179  -4.4252  -4.2608  -4.0708  -2.4977  -1.9224  -0.4697  -0.3532
     0.3957   0.7090

     the Fermi energy is    -4.0625 ev

!    total energy              =    -329.42618555 Ry
     Harris-Foulkes estimate   =    -329.42618556 Ry
     estimated scf accuracy    <          4.3E-09 Ry

     The total energy is the sum of the following terms:

     one-electron contribution =    -606.06061207 Ry
     hartree contribution      =     324.53177758 Ry
     xc contribution           =     -51.47561409 Ry
     ewald contribution        =       3.55967668 Ry
     smearing contrib. (-TS)   =       0.01858634 Ry

     convergence has been achieved in  15 iterations

     Forces acting on atoms (Ry/au):

     atom    1 type  1   force =    -0.00310531    0.00831824    0.01819295
     atom    2 type  1   force =    -0.01616050   -0.01973041   -0.04093652
     atom    3 type  1   force =    -0.13456682   -0.01769646   -0.08381319
     atom    4 type  1   force =     0.02031188   -0.00655331   -0.00072980
     atom    5 type  1   force =     0.13352074    0.03566194    0.10728656

     Total force =     0.243409     Total SCF correction =     0.000242

     BFGS Geometry Optimization

     number of scf cycles    =   1
     number of bfgs steps    =   0

     energy   new            =    -329.4261855539 Ry

     new trust radius        =       0.1749570431 bohr
     new conv_thr            =       0.0000000100 Ry

ATOMIC_POSITIONS (bohr)
Au      -2.086478305   0.758525235  -0.348201052
Au       0.126555499   2.864691592   4.151757475
Au       2.742191185   0.522008544   0.161035815
Au       4.296214882   4.990349693   5.947987204
Au       6.590125739   1.230646935   2.965262558

     Writing output data file pwscf.save
     Check: negative starting charge=   -0.006146
     NEW-OLD atomic charge density approx. for the potential
     Check: negative starting charge=   -0.006235

[...]

     energy   old            =    -329.4261855539 Ry
     energy   new            =    -329.4619323254 Ry

     CASE: energy  _new < energy  _old

[...]

     CASE: energy  _new < energy  _old

[...]

     CASE: energy  _new > energy  _old

[...]

     new trust radius        =       0.0000257145 bohr

     trust_radius < trust_radius_min

     resetting bfgs history

     new conv_thr            =       0.0000000003 Ry

[...]

     new trust radius        =       0.0023160651 bohr
     new conv_thr            =       0.0000000003 Ry

[...]

     Self-consistent Calculation

[...]

     Threshold (ethr) on eigenvalues was too large:
     Diagonalizing with lowered threshold

     Davidson diagonalization with overlap
     ethr =  3.79E-08,  avg # of iterations =  2.0

[...]

     total energy              =    -329.48563834 Ry
     Harris-Foulkes estimate   =    -329.48563836 Ry
     estimated scf accuracy    <          1.2E-09 Ry

     iteration # 10     ecut=    30.00 Ry     beta=0.70
     Davidson diagonalization with overlap
     ethr =  2.23E-12,  avg # of iterations =  2.0

     End of self-consistent calculation

          k = 0.0000 0.0000 0.0000 ( 22119 PWs)   bands (ev):

    -8.2149  -7.6332  -7.5255  -7.3696  -7.2076  -6.6076  -6.5123  -6.4729
    -6.2627  -6.1618  -5.9102  -5.6739  -5.6218  -5.4420  -5.3834  -5.3429
    -5.3157  -5.2753  -5.1347  -5.1214  -5.0480  -4.9353  -4.5598  -4.4719
    -4.4584  -4.2582  -4.2141  -3.8364  -2.3902  -2.0662  -0.4548  -0.2854
     0.4425   0.7310

     the Fermi energy is    -3.9060 ev

!    total energy              =    -329.48563835 Ry
     Harris-Foulkes estimate   =    -329.48563834 Ry
     estimated scf accuracy    <          1.6E-10 Ry

     The total energy is the sum of the following terms:

     one-electron contribution =    -603.38082262 Ry
     hartree contribution      =     323.40823867 Ry
     xc contribution           =     -51.47761131 Ry
     ewald contribution        =       1.94142543 Ry
     smearing contrib. (-TS)   =       0.02313148 Ry

     convergence has been achieved in  10 iterations

     Forces acting on atoms (Ry/au):

     atom    1 type  1   force =    -0.00656492   -0.00300652   -0.00655138
     atom    2 type  1   force =     0.00311335    0.00186541   -0.00050596
     atom    3 type  1   force =     0.00048720   -0.00082425   -0.00116369
     atom    4 type  1   force =     0.00441492   -0.00104985    0.00549189
     atom    5 type  1   force =    -0.00145055    0.00301521    0.00272915

     Total force =     0.013422     Total SCF correction =     0.000054

     number of scf cycles    =  50
     number of bfgs steps    =  15

     energy   old            =    -329.4862152044 Ry
     energy   new            =    -329.4856383539 Ry

     CASE: energy  _new > energy  _old

     new trust radius        =       0.0000947740 bohr

     trust_radius < trust_radius_min

     resetting bfgs history

     new conv_thr            =       0.0000000003 Ry

ATOMIC_POSITIONS (bohr)
Au      -2.279147978   0.794555638  -0.147999444
Au       0.165285135   2.924199379   3.708921843
Au       2.789285644   0.456833093   0.041412908
Au       4.263458429   4.788353187   6.061960237
Au       6.729727770   1.402280703   3.213546456

     Writing output data file pwscf.save
     Check: negative starting charge=   -0.006189
     NEW-OLD atomic charge density approx. for the potential
     Check: negative starting charge=   -0.006188

     negative rho (up, down):  2.451E-06 0.000E+00

     Writing output data file pwscf.save

     General routines

     Parallel routines

   This run was terminated on:   3:17:49   4Aug2017

   JOB DONE.