     Program PWSCF v.6.0 (svn rev. 13079) starts on  3Aug2017 at 10: 2: 8

     Current dimensions of program PWSCF are:
     Max number of different atomic species (ntypx) = 10
     Max number of k-points (npk) =  40000
     Max angular momentum in pseudopotentials (lmaxx) =  3
     Message from routine iosys:
     pot_extrapolation='second-order' not available, using 'atomic'
     Message from routine iosys:
     wfc_extrapolation='second-order' not available, using 'atomic'

     Subspace diagonalization in iterative solution of the eigenvalue problem:
     a serial algorithm will be used

     bravais-lattice index     =            1
     lattice parameter (alat)  =      20.0000  a.u.
     unit-cell volume          =    8000.0000 (a.u.)^3
     number of atoms/cell      =            5
     number of atomic types    =            1
     number of electrons       =        55.00
     number of Kohn-Sham states=           34
     kinetic-energy cutoff     =      30.0000  Ry
     charge density cutoff     =     120.0000  Ry
     convergence threshold     =      1.0E-08
     mixing beta               =       0.7000
     number of iterations used =            8  plain     mixing
     Exchange-correlation      = BLYP ( 1  3  1  3 0 0)
     nstep                     =           50

     celldm(1)=  20.000000  celldm(2)=   0.000000  celldm(3)=   0.000000
     celldm(4)=   0.000000  celldm(5)=   0.000000  celldm(6)=   0.000000

     crystal axes: (cart. coord. in units of alat)
               a(1) = (   1.000000   0.000000   0.000000 )
               a(2) = (   0.000000   1.000000   0.000000 )
               a(3) = (   0.000000   0.000000   1.000000 )

     reciprocal axes: (cart. coord. in units 2 pi/alat)
               b(1) = (  1.000000  0.000000  0.000000 )
               b(2) = (  0.000000  1.000000  0.000000 )
               b(3) = (  0.000000  0.000000  1.000000 )

     PseudoPot. # 1 for Au read from file:
     ./Au.blyp-d-hgh.UPF
     MD5 check sum: c10d8bae01f806c36a1643a1c69a8479
     Pseudo is Norm-conserving, Zval = 11.0
     Generated in analytical, separable form
     Using radial grid of 1279 points,  6 beta functions with:
                l(1) =   0
                l(2) =   0
                l(3) =   1
                l(4) =   1
                l(5) =   2
                l(6) =   2

     atomic species   valence    mass     pseudopotential
        Au            11.00    28.08600     Au( 1.00)

     No symmetry found

   Cartesian axes

     site n.     atom                  positions (alat units)
         1           Au  tau(   1) = (  -0.0790287   0.0873378  -0.0513602  )
         2           Au  tau(   2) = (  -0.0505736   0.1789119   0.1789567  )
         3           Au  tau(   3) = (   0.1570886   0.0625612   0.0318967  )
         4           Au  tau(   4) = (   0.1946068   0.1649062   0.2869611  )
         5           Au  tau(   5) = (   0.3788600   0.0728485   0.1513438  )

     number of k points=     1  Marzari-Vanderbilt smearing, width (Ry)=  0.0250
                       cart. coord. in units 2pi/alat
        k(    1) = (   0.0000000   0.0000000   0.0000000), wk =   2.0000000

     Initial potential from superposition of free atoms
     Check: negative starting charge=   -0.006339

     starting charge   54.99940, renormalised to   55.00000

     negative rho (up, down):  6.339E-03 0.000E+00
     Starting wfc are   45 randomized atomic wfcs

     Self-consistent Calculation

     iteration #  1     ecut=    30.00 Ry     beta=0.70
     Davidson diagonalization with overlap
     ethr =  1.00E-02,  avg # of iterations =  3.0

     Threshold (ethr) on eigenvalues was too large:
     Diagonalizing with lowered threshold

     Davidson diagonalization with overlap
     ethr =  4.19E-04,  avg # of iterations =  5.0

     negative rho (up, down):  8.627E-04 0.000E+00

     total energy              =    -329.37135369 Ry
     Harris-Foulkes estimate   =    -329.54613799 Ry
     estimated scf accuracy    <       0.28835187 Ry

[...]

     End of self-consistent calculation

          k = 0.0000 0.0000 0.0000 ( 22119 PWs)   bands (ev):

    -8.4956  -7.8753  -7.6269  -7.1580  -6.9233  -6.8666  -6.8254  -6.5385
    -6.2110  -6.1585  -6.0517  -5.7650  -5.7435  -5.6616  -5.4369  -5.3370
    -5.2918  -5.2640  -5.2197  -5.1575  -5.1483  -5.1435  -5.0082  -4.9157
    -4.9065  -4.6690  -4.4586  -3.6984  -2.5007  -2.1986  -0.5469  -0.1718
     0.4617   0.8053

     the Fermi energy is    -3.6596 ev

!    total energy              =    -329.48585443 Ry
     Harris-Foulkes estimate   =    -329.48585446 Ry
     estimated scf accuracy    <          8.3E-09 Ry

     The total energy is the sum of the following terms:

     one-electron contribution =    -609.14253074 Ry
     hartree contribution      =     325.98898192 Ry
     xc contribution           =     -51.41268918 Ry
     ewald contribution        =       5.08620320 Ry
     smearing contrib. (-TS)   =      -0.00581962 Ry

     convergence has been achieved in  11 iterations

     Forces acting on atoms (Ry/au):

     atom    1 type  1   force =    -0.00515429   -0.00832495   -0.01995963
     atom    2 type  1   force =     0.01650678    0.00607658    0.01955425
     atom    3 type  1   force =    -0.00291435    0.00433051    0.00527414
     atom    4 type  1   force =    -0.02950779    0.01039620    0.00796589
     atom    5 type  1   force =     0.02106966   -0.01247834   -0.01283465

     Total force =     0.055206     Total SCF correction =     0.000389

     BFGS Geometry Optimization

     number of scf cycles    =   1
     number of bfgs steps    =   0

     energy   new            =    -329.4858544253 Ry

     new trust radius        =       0.0322838331 bohr
     new conv_thr            =       0.0000000100 Ry

ATOMIC_POSITIONS (bohr)
Au      -1.585728294   1.738431049  -1.047164633
Au      -0.994964224   3.584314577   3.598688253
Au       3.138857645   1.255555514   0.643208136
Au       3.862628212   3.308519198   5.747188889
Au       7.598268661   1.444492662   3.014041354

     Writing output data file pwscf.save
     Check: negative starting charge=   -0.006339
     NEW-OLD atomic charge density approx. for the potential
     Check: negative starting charge=   -0.006324

[...]

     energy   old            =    -329.4858544253 Ry
     energy   new            =    -329.4884198347 Ry

     CASE: energy  _new < energy  _old

[...]

     number of scf cycles    =  20
     number of bfgs steps    =  19

     energy   old            =    -329.4925454071 Ry
     energy   new            =    -329.4925611336 Ry

     CASE: energy  _new < energy  _old

     new trust radius        =       0.0082568527 bohr
     new conv_thr            =            1.0E-10 Ry

ATOMIC_POSITIONS (bohr)
Au      -1.595340973   1.658028400  -1.163819862
Au      -0.842102364   3.631980907   3.562905826
Au       3.083004355   1.383819295   0.718614549
Au       3.801917462   3.355364174   5.825207543
Au       7.571583520   1.302120223   3.013053944

     Writing output data file pwscf.save
     Check: negative starting charge=   -0.006441
     NEW-OLD atomic charge density approx. for the potential
     Check: negative starting charge=   -0.006437

     negative rho (up, down):  1.931E-06 0.000E+00

     Self-consistent Calculation

[...]

     Threshold (ethr) on eigenvalues was too large:
     Diagonalizing with lowered threshold

     Davidson diagonalization with overlap
     ethr =  2.19E-08,  avg # of iterations =  1.0

[...]

     total energy              =    -329.49256621 Ry
     Harris-Foulkes estimate   =    -329.49256624 Ry
     estimated scf accuracy    <          1.6E-10 Ry

     iteration #  9     ecut=    30.00 Ry     beta=0.70
     Davidson diagonalization with overlap
     ethr =  2.97E-13,  avg # of iterations =  3.0

     End of self-consistent calculation

          k = 0.0000 0.0000 0.0000 ( 22119 PWs)   bands (ev):

    -8.5208  -7.7945  -7.6634  -7.2480  -6.8855  -6.8253  -6.6167  -6.4885
    -6.3174  -6.0780  -5.9665  -5.7697  -5.7319  -5.6912  -5.4553  -5.3635
    -5.3184  -5.2447  -5.2020  -5.1922  -5.1669  -5.1246  -4.9982  -4.9233
    -4.8578  -4.7114  -4.4791  -3.7696  -2.4495  -2.2105  -0.5511  -0.1792
     0.4486   0.8508

     the Fermi energy is    -3.7361 ev

!    total energy              =    -329.49256619 Ry
     Harris-Foulkes estimate   =    -329.49256621 Ry
     estimated scf accuracy    <          5.4E-11 Ry

     The total energy is the sum of the following terms:

     one-electron contribution =    -608.50848960 Ry
     hartree contribution      =     325.67820086 Ry
     xc contribution           =     -51.40261044 Ry
     ewald contribution        =       4.74489133 Ry
     smearing contrib. (-TS)   =      -0.00455835 Ry

     convergence has been achieved in   9 iterations

     Forces acting on atoms (Ry/au):

     atom    1 type  1   force =    -0.00076750    0.00053613   -0.00019100
     atom    2 type  1   force =    -0.00013801    0.00061662   -0.00084528
     atom    3 type  1   force =     0.00012511   -0.00080060    0.00059667
     atom    4 type  1   force =    -0.00005180   -0.00005383    0.00006148
     atom    5 type  1   force =     0.00083219   -0.00029832    0.00037814

     Total force =     0.001993     Total SCF correction =     0.000033

     bfgs converged in  21 scf cycles and  20 bfgs steps
     (criteria: energy <  1.0E-04, force <  1.0E-03)

     End of BFGS Geometry Optimization

     Final energy   =    -329.4925661877 Ry
Begin final coordinates

ATOMIC_POSITIONS (bohr)
Au      -1.595340973   1.658028400  -1.163819862
Au      -0.842102364   3.631980907   3.562905826
Au       3.083004355   1.383819295   0.718614549
Au       3.801917462   3.355364174   5.825207543
Au       7.571583520   1.302120223   3.013053944
End final coordinates

     Writing output data file pwscf.save

     General routines

     Parallel routines

   This run was terminated on:  10: 4:43   3Aug2017

   JOB DONE.