     Program PWSCF v.6.0 (svn rev. 13079) starts on  4Aug2017 at  2: 8:58

     Current dimensions of program PWSCF are:
     Max number of different atomic species (ntypx) = 10
     Max number of k-points (npk) =  40000
     Max angular momentum in pseudopotentials (lmaxx) =  3
     Message from routine iosys:
     pot_extrapolation='second-order' not available, using 'atomic'
     Message from routine iosys:
     wfc_extrapolation='second-order' not available, using 'atomic'

     Subspace diagonalization in iterative solution of the eigenvalue problem:
     a serial algorithm will be used

     bravais-lattice index     =            1
     lattice parameter (alat)  =      20.0000  a.u.
     unit-cell volume          =    8000.0000 (a.u.)^3
     number of atoms/cell      =            5
     number of atomic types    =            1
     number of electrons       =        55.00
     number of Kohn-Sham states=           34
     kinetic-energy cutoff     =      30.0000  Ry
     charge density cutoff     =     120.0000  Ry
     convergence threshold     =      1.0E-08
     mixing beta               =       0.7000
     number of iterations used =            8  plain     mixing
     Exchange-correlation      = BLYP ( 1  3  1  3 0 0)
     nstep                     =           50

     celldm(1)=  20.000000  celldm(2)=   0.000000  celldm(3)=   0.000000
     celldm(4)=   0.000000  celldm(5)=   0.000000  celldm(6)=   0.000000

     crystal axes: (cart. coord. in units of alat)
               a(1) = (   1.000000   0.000000   0.000000 )
               a(2) = (   0.000000   1.000000   0.000000 )
               a(3) = (   0.000000   0.000000   1.000000 )

     reciprocal axes: (cart. coord. in units 2 pi/alat)
               b(1) = (  1.000000  0.000000  0.000000 )
               b(2) = (  0.000000  1.000000  0.000000 )
               b(3) = (  0.000000  0.000000  1.000000 )

     PseudoPot. # 1 for Au read from file:
     ./Au.blyp-d-hgh.UPF
     MD5 check sum: c10d8bae01f806c36a1643a1c69a8479
     Pseudo is Norm-conserving, Zval = 11.0
     Generated in analytical, separable form
     Using radial grid of 1279 points,  6 beta functions with:
                l(1) =   0
                l(2) =   0
                l(3) =   1
                l(4) =   1
                l(5) =   2
                l(6) =   2

     atomic species   valence    mass     pseudopotential
        Au            11.00    28.08600     Au( 1.00)

     No symmetry found

   Cartesian axes

     site n.     atom                  positions (alat units)
         1           Au  tau(   1) = (  -0.0813837   0.0871092  -0.0289982  )
         2           Au  tau(   2) = (  -0.0097167   0.1532987   0.2026946  )
         3           Au  tau(   3) = (   0.1529902   0.1485229  -0.0096899  )
         4           Au  tau(   4) = (   0.2311380   0.2390418   0.2727312  )
         5           Au  tau(   5) = (   0.2972227   0.0253503   0.1501980  )

     number of k points=     1  Marzari-Vanderbilt smearing, width (Ry)=  0.0250
                       cart. coord. in units 2pi/alat
        k(    1) = (   0.0000000   0.0000000   0.0000000), wk =   2.0000000

     Initial potential from superposition of free atoms
     Check: negative starting charge=   -0.006137

     starting charge   54.99940, renormalised to   55.00000

     negative rho (up, down):  6.137E-03 0.000E+00
     Starting wfc are   45 randomized atomic wfcs

     Self-consistent Calculation

     iteration #  1     ecut=    30.00 Ry     beta=0.70
     Davidson diagonalization with overlap
     ethr =  1.00E-02,  avg # of iterations =  4.0

     Threshold (ethr) on eigenvalues was too large:
     Diagonalizing with lowered threshold

     Davidson diagonalization with overlap
     ethr =  3.63E-04,  avg # of iterations =  7.0

     negative rho (up, down):  8.103E-04 0.000E+00

     total energy              =    -329.34457393 Ry
     Harris-Foulkes estimate   =    -329.49888726 Ry
     estimated scf accuracy    <       0.25885534 Ry

[...]

     End of self-consistent calculation

          k = 0.0000 0.0000 0.0000 ( 22119 PWs)   bands (ev):

    -8.3201  -7.8595  -7.5217  -7.2324  -7.0071  -6.9212  -6.7545  -6.5472
    -6.4346  -6.0869  -5.9829  -5.7867  -5.6649  -5.5960  -5.5080  -5.3795
    -5.2814  -5.2063  -5.1287  -5.1185  -5.0590  -5.0396  -4.9214  -4.8911
    -4.6456  -4.5010  -4.2727  -3.5638  -2.5768  -2.2735  -0.3012  -0.0901
     0.2464   0.5853

     the Fermi energy is    -3.5303 ev

!    total energy              =    -329.44625589 Ry
     Harris-Foulkes estimate   =    -329.44625591 Ry
     estimated scf accuracy    <          1.7E-09 Ry

     The total energy is the sum of the following terms:

     one-electron contribution =    -620.86531966 Ry
     hartree contribution      =     331.95313820 Ry
     xc contribution           =     -51.42881586 Ry
     ewald contribution        =      10.89929045 Ry
     smearing contrib. (-TS)   =      -0.00454902 Ry

     convergence has been achieved in  12 iterations

     Forces acting on atoms (Ry/au):

     atom    1 type  1   force =    -0.04644769   -0.00924183   -0.01701898
     atom    2 type  1   force =     0.00979003    0.01168878    0.01354357
     atom    3 type  1   force =     0.02464502    0.01002491   -0.00900949
     atom    4 type  1   force =    -0.01110488   -0.00815031    0.00112786
     atom    5 type  1   force =     0.02311752   -0.00432155    0.01135705

     Total force =     0.067901     Total SCF correction =     0.000169

     BFGS Geometry Optimization

     number of scf cycles    =   1
     number of bfgs steps    =   0

     energy   new            =    -329.4462558941 Ry

     new trust radius        =       0.0503234071 bohr
     new conv_thr            =       0.0000000100 Ry

ATOMIC_POSITIONS (bohr)
Au      -1.674120691   1.732942165  -0.596983983
Au      -0.184543967   3.077661776   4.067435571
Au       3.084450021   2.980482912  -0.202807493
Au       4.611656117   4.772685693   5.455751859
Au       5.967572520   0.502684454   3.015318046

     Writing output data file pwscf.save
     Check: negative starting charge=   -0.006137
     NEW-OLD atomic charge density approx. for the potential
     Check: negative starting charge=   -0.006126

[...]

     energy   old            =    -329.4462558941 Ry
     energy   new            =    -329.4500236339 Ry

     CASE: energy  _new < energy  _old

[...]

     WARNING: bfgs curvature condition failed, Theta= 0.981
     new trust radius        =       0.0577057448 bohr
     new conv_thr            =       0.0000000001 Ry

[...]

     CASE: energy  _new > energy  _old

[...]

     WARNING: info=  5 for Hessian
     uphill step: resetting bfgs history

[...]

     WARNING: bfgs curvature condition failed, Theta= 0.834
     new trust radius        =       0.0064623935 bohr
     new conv_thr            =            1.0E-10 Ry

[...]

     iteration #  1     ecut=    30.00 Ry     beta=0.70
     Davidson diagonalization with overlap
     c_bands:  1 eigenvalues not converged
     ethr =  1.00E-06,  avg # of iterations = 20.0

[...]

     Threshold (ethr) on eigenvalues was too large:
     Diagonalizing with lowered threshold

     Davidson diagonalization with overlap
     ethr =  4.44E-08,  avg # of iterations =  1.0

[...]

     Self-consistent Calculation

[...]

     total energy              =    -329.49256379 Ry
     Harris-Foulkes estimate   =    -329.49256377 Ry
     estimated scf accuracy    <          2.3E-10 Ry

     iteration # 10     ecut=    30.00 Ry     beta=0.70
     Davidson diagonalization with overlap
     ethr =  4.20E-13,  avg # of iterations =  2.0

     End of self-consistent calculation

          k = 0.0000 0.0000 0.0000 ( 22119 PWs)   bands (ev):

    -8.5074  -7.7811  -7.6460  -7.2282  -6.8470  -6.8150  -6.6114  -6.4820
    -6.3019  -6.0761  -5.9515  -5.7691  -5.7273  -5.6833  -5.4621  -5.3559
    -5.3139  -5.2494  -5.2006  -5.1843  -5.1672  -5.1223  -5.0050  -4.9265
    -4.8435  -4.7300  -4.4855  -3.7794  -2.4751  -2.1972  -0.5451  -0.1864
     0.5113   0.8253

     the Fermi energy is    -3.7462 ev

!    total energy              =    -329.49256377 Ry
     Harris-Foulkes estimate   =    -329.49256379 Ry
     estimated scf accuracy    <          2.9E-11 Ry

     The total energy is the sum of the following terms:

     one-electron contribution =    -607.60628116 Ry
     hartree contribution      =     325.23571403 Ry
     xc contribution           =     -51.39864644 Ry
     ewald contribution        =       4.28113591 Ry
     smearing contrib. (-TS)   =      -0.00448612 Ry

     convergence has been achieved in  10 iterations

     Forces acting on atoms (Ry/au):

     atom    1 type  1   force =     0.00194307    0.00067116    0.00065848
     atom    2 type  1   force =     0.00053498   -0.00064199    0.00007312
     atom    3 type  1   force =    -0.00188285    0.00104872   -0.00077643
     atom    4 type  1   force =    -0.00105338   -0.00006227   -0.00021319
     atom    5 type  1   force =     0.00045818   -0.00101562    0.00025802

     Total force =     0.003616     Total SCF correction =     0.000027

     number of scf cycles    =  50
     number of bfgs steps    =  48

     energy   old            =    -329.4925291500 Ry
     energy   new            =    -329.4925637746 Ry

     CASE: energy  _new < energy  _old

     new trust radius        =       0.0552781071 bohr
     new conv_thr            =            1.0E-10 Ry

ATOMIC_POSITIONS (bohr)
Au      -1.940567736   2.330909749  -0.859322959
Au      -0.736959428   4.187550812   3.831210256
Au       2.826440394   1.623724010   0.687482220
Au       4.136054755   3.666244788   5.565698937
Au       7.520046016   1.258027641   2.513645545

     Writing output data file pwscf.save
     Check: negative starting charge=   -0.006411
     NEW-OLD atomic charge density approx. for the potential
     Check: negative starting charge=   -0.006416

     negative rho (up, down):  5.390E-04 0.000E+00

     Writing output data file pwscf.save

     General routines

     Parallel routines

   This run was terminated on:   2:11:13   4Aug2017

   JOB DONE.