     Program PWSCF v.6.0 (svn rev. 13079) starts on  4Aug2017 at  2:57: 6

     Current dimensions of program PWSCF are:
     Max number of different atomic species (ntypx) = 10
     Max number of k-points (npk) =  40000
     Max angular momentum in pseudopotentials (lmaxx) =  3
     Message from routine iosys:
     pot_extrapolation='second-order' not available, using 'atomic'
     Message from routine iosys:
     wfc_extrapolation='second-order' not available, using 'atomic'

     Subspace diagonalization in iterative solution of the eigenvalue problem:
     a serial algorithm will be used

     bravais-lattice index     =            1
     lattice parameter (alat)  =      20.0000  a.u.
     unit-cell volume          =    8000.0000 (a.u.)^3
     number of atoms/cell      =            5
     number of atomic types    =            1
     number of electrons       =        55.00
     number of Kohn-Sham states=           34
     kinetic-energy cutoff     =      30.0000  Ry
     charge density cutoff     =     120.0000  Ry
     convergence threshold     =      1.0E-08
     mixing beta               =       0.7000
     number of iterations used =            8  plain     mixing
     Exchange-correlation      = BLYP ( 1  3  1  3 0 0)
     nstep                     =           50

     celldm(1)=  20.000000  celldm(2)=   0.000000  celldm(3)=   0.000000
     celldm(4)=   0.000000  celldm(5)=   0.000000  celldm(6)=   0.000000

     crystal axes: (cart. coord. in units of alat)
               a(1) = (   1.000000   0.000000   0.000000 )
               a(2) = (   0.000000   1.000000   0.000000 )
               a(3) = (   0.000000   0.000000   1.000000 )

     reciprocal axes: (cart. coord. in units 2 pi/alat)
               b(1) = (  1.000000  0.000000  0.000000 )
               b(2) = (  0.000000  1.000000  0.000000 )
               b(3) = (  0.000000  0.000000  1.000000 )

     PseudoPot. # 1 for Au read from file:
     ./Au.blyp-d-hgh.UPF
     MD5 check sum: c10d8bae01f806c36a1643a1c69a8479
     Pseudo is Norm-conserving, Zval = 11.0
     Generated in analytical, separable form
     Using radial grid of 1279 points,  6 beta functions with:
                l(1) =   0
                l(2) =   0
                l(3) =   1
                l(4) =   1
                l(5) =   2
                l(6) =   2

     atomic species   valence    mass     pseudopotential
        Au            11.00    28.08600     Au( 1.00)

     No symmetry found

   Cartesian axes

     site n.     atom                  positions (alat units)
         1           Au  tau(   1) = (  -0.0821819   0.0567196  -0.0326488  )
         2           Au  tau(   2) = (  -0.0007828   0.1250964   0.2025945  )
         3           Au  tau(   3) = (   0.1508543   0.1368319  -0.0071053  )
         4           Au  tau(   4) = (   0.2280599   0.2288534   0.2801733  )
         5           Au  tau(   5) = (   0.3111703   0.0274674   0.1453183  )

     number of k points=     1  Marzari-Vanderbilt smearing, width (Ry)=  0.0250
                       cart. coord. in units 2pi/alat
        k(    1) = (   0.0000000   0.0000000   0.0000000), wk =   2.0000000

     Initial potential from superposition of free atoms
     Check: negative starting charge=   -0.006197

     starting charge   54.99940, renormalised to   55.00000

     negative rho (up, down):  6.197E-03 0.000E+00
     Starting wfc are   45 randomized atomic wfcs

     Self-consistent Calculation

     iteration #  1     ecut=    30.00 Ry     beta=0.70
     Davidson diagonalization with overlap
     ethr =  1.00E-02,  avg # of iterations =  3.0

     Threshold (ethr) on eigenvalues was too large:
     Diagonalizing with lowered threshold

     Davidson diagonalization with overlap
     ethr =  3.43E-04,  avg # of iterations =  8.0

     negative rho (up, down):  8.212E-04 0.000E+00

     total energy              =    -329.35673163 Ry
     Harris-Foulkes estimate   =    -329.50348784 Ry
     estimated scf accuracy    <       0.24818283 Ry

[...]

     End of self-consistent calculation

          k = 0.0000 0.0000 0.0000 ( 22119 PWs)   bands (ev):

    -8.3187  -7.8721  -7.5217  -7.2015  -7.0510  -6.8810  -6.7684  -6.4723
    -6.4552  -6.0042  -5.9249  -5.7637  -5.7145  -5.5762  -5.5019  -5.4182
    -5.2782  -5.2279  -5.1400  -5.1005  -5.0541  -5.0402  -4.9532  -4.9105
    -4.7145  -4.4497  -4.3492  -3.5531  -2.5257  -2.3655  -0.2925  -0.0715
     0.2885   0.5726

     the Fermi energy is    -3.5133 ev

!    total energy              =    -329.45090781 Ry
     Harris-Foulkes estimate   =    -329.45090788 Ry
     estimated scf accuracy    <          2.5E-09 Ry

     The total energy is the sum of the following terms:

     one-electron contribution =    -618.50619140 Ry
     hartree contribution      =     330.76755553 Ry
     xc contribution           =     -51.41790381 Ry
     ewald contribution        =       9.71166983 Ry
     smearing contrib. (-TS)   =      -0.00603797 Ry

     convergence has been achieved in  12 iterations

     Forces acting on atoms (Ry/au):

     atom    1 type  1   force =    -0.02464681   -0.00314039   -0.00192962
     atom    2 type  1   force =     0.00024462    0.00884065    0.00823898
     atom    3 type  1   force =     0.01009911    0.00687257   -0.01836273
     atom    4 type  1   force =    -0.01156612   -0.00879561    0.00020024
     atom    5 type  1   force =     0.02586919   -0.00377722    0.01185313

     Total force =     0.047841     Total SCF correction =     0.000238

     BFGS Geometry Optimization

     number of scf cycles    =   1
     number of bfgs steps    =   0

     energy   new            =    -329.4509078110 Ry

     new trust radius        =       0.0287050396 bohr
     new conv_thr            =       0.0000000100 Ry

ATOMIC_POSITIONS (bohr)
Au      -1.668283806   1.131251607  -0.654905618
Au      -0.015411377   2.510768650   4.060128978
Au       3.027185109   2.743510570  -0.160467731
Au       4.549631880   4.568271389   5.603667239
Au       6.249275194   0.545571784   2.918218131

     Writing output data file pwscf.save
     Check: negative starting charge=   -0.006197
     NEW-OLD atomic charge density approx. for the potential
     Check: negative starting charge=   -0.006183

[...]

     energy   old            =    -329.4509078110 Ry
     energy   new            =    -329.4529388837 Ry

     CASE: energy  _new < energy  _old

[...]

     iteration #  1     ecut=    30.00 Ry     beta=0.70
     Davidson diagonalization with overlap
     c_bands:  1 eigenvalues not converged
     ethr =  1.00E-06,  avg # of iterations = 20.0

[...]

     WARNING: bfgs curvature condition failed, Theta= 0.312
     new trust radius        =       0.1587742269 bohr
     new conv_thr            =       0.0000000007 Ry

[...]

     CASE: energy  _new > energy  _old

[...]

     iteration #  1     ecut=    30.00 Ry     beta=0.70
     Davidson diagonalization with overlap
     c_bands:  1 eigenvalues not converged
     ethr =  1.00E-06,  avg # of iterations = 20.0

[...]

     number of scf cycles    =  48
     number of bfgs steps    =  46

     energy   old            =    -329.4913971506 Ry
     energy   new            =    -329.4914092708 Ry

     CASE: energy  _new < energy  _old

     new trust radius        =       0.0119520212 bohr
     new conv_thr            =            1.0E-10 Ry

ATOMIC_POSITIONS (bohr)
Au      -1.785134716   1.671747775  -0.853576845
Au      -0.818512599   3.600845043   3.824296114
Au       3.053121132   1.544817657   0.586752437
Au       3.967659114   3.112305182   5.698631034
Au       7.725264069   1.569658343   2.510538261

     Writing output data file pwscf.save
     Check: negative starting charge=   -0.006503
     NEW-OLD atomic charge density approx. for the potential
     Check: negative starting charge=   -0.006501

[...]

     Self-consistent Calculation

[...]

     Threshold (ethr) on eigenvalues was too large:
     Diagonalizing with lowered threshold

     Davidson diagonalization with overlap
     ethr =  7.71E-08,  avg # of iterations =  1.0

     negative rho (up, down):  4.574E-08 0.000E+00

[...]

     total energy              =    -329.49141937 Ry
     Harris-Foulkes estimate   =    -329.49141936 Ry
     estimated scf accuracy    <          2.4E-10 Ry

     iteration # 10     ecut=    30.00 Ry     beta=0.70
     Davidson diagonalization with overlap
     ethr =  4.31E-13,  avg # of iterations =  2.0

     End of self-consistent calculation

          k = 0.0000 0.0000 0.0000 ( 22119 PWs)   bands (ev):

    -8.5062  -7.7843  -7.6621  -7.2401  -6.8774  -6.8093  -6.6337  -6.4847
    -6.3043  -6.0679  -5.9637  -5.7718  -5.7307  -5.6932  -5.4536  -5.3801
    -5.3187  -5.2432  -5.2089  -5.1818  -5.1761  -5.1223  -5.0000  -4.9295
    -4.8336  -4.7309  -4.4699  -3.7792  -2.5014  -2.1910  -0.5606  -0.1913
     0.5088   0.8521

     the Fermi energy is    -3.7478 ev

!    total energy              =    -329.49141937 Ry
     Harris-Foulkes estimate   =    -329.49141937 Ry
     estimated scf accuracy    <          1.3E-11 Ry

     The total energy is the sum of the following terms:

     one-electron contribution =    -609.74493561 Ry
     hartree contribution      =     326.30030013 Ry
     xc contribution           =     -51.40309882 Ry
     ewald contribution        =       5.36040381 Ry
     smearing contrib. (-TS)   =      -0.00408889 Ry

     convergence has been achieved in  10 iterations

     Forces acting on atoms (Ry/au):

     atom    1 type  1   force =    -0.00011298    0.00029498   -0.00097462
     atom    2 type  1   force =    -0.00021061   -0.00035087   -0.00056451
     atom    3 type  1   force =     0.00021609    0.00028418    0.00017524
     atom    4 type  1   force =     0.00025477   -0.00021231    0.00055675
     atom    5 type  1   force =    -0.00014727   -0.00001598    0.00080713

     Total force =     0.001670     Total SCF correction =     0.000016

     bfgs converged in  49 scf cycles and  47 bfgs steps
     (criteria: energy <  1.0E-04, force <  1.0E-03)

     End of BFGS Geometry Optimization

     Final energy   =    -329.4914193716 Ry
Begin final coordinates

ATOMIC_POSITIONS (bohr)
Au      -1.785134716   1.671747775  -0.853576845
Au      -0.818512599   3.600845043   3.824296114
Au       3.053121132   1.544817657   0.586752437
Au       3.967659114   3.112305182   5.698631034
Au       7.725264069   1.569658343   2.510538261
End final coordinates

     Writing output data file pwscf.save

     General routines

     Parallel routines

   This run was terminated on:   2:59:23   4Aug2017

   JOB DONE.