     Program PWSCF v.6.0 (svn rev. 13079) starts on  3Aug2017 at 22:16:28

     Current dimensions of program PWSCF are:
     Max number of different atomic species (ntypx) = 10
     Max number of k-points (npk) =  40000
     Max angular momentum in pseudopotentials (lmaxx) =  3
     Message from routine iosys:
     pot_extrapolation='second-order' not available, using 'atomic'
     Message from routine iosys:
     wfc_extrapolation='second-order' not available, using 'atomic'

     Subspace diagonalization in iterative solution of the eigenvalue problem:
     a serial algorithm will be used

     bravais-lattice index     =            1
     lattice parameter (alat)  =      20.0000  a.u.
     unit-cell volume          =    8000.0000 (a.u.)^3
     number of atoms/cell      =            5
     number of atomic types    =            1
     number of electrons       =        55.00
     number of Kohn-Sham states=           34
     kinetic-energy cutoff     =      30.0000  Ry
     charge density cutoff     =     120.0000  Ry
     convergence threshold     =      1.0E-08
     mixing beta               =       0.7000
     number of iterations used =            8  plain     mixing
     Exchange-correlation      = BLYP ( 1  3  1  3 0 0)
     nstep                     =           50

     celldm(1)=  20.000000  celldm(2)=   0.000000  celldm(3)=   0.000000
     celldm(4)=   0.000000  celldm(5)=   0.000000  celldm(6)=   0.000000

     crystal axes: (cart. coord. in units of alat)
               a(1) = (   1.000000   0.000000   0.000000 )
               a(2) = (   0.000000   1.000000   0.000000 )
               a(3) = (   0.000000   0.000000   1.000000 )

     reciprocal axes: (cart. coord. in units 2 pi/alat)
               b(1) = (  1.000000  0.000000  0.000000 )
               b(2) = (  0.000000  1.000000  0.000000 )
               b(3) = (  0.000000  0.000000  1.000000 )

     PseudoPot. # 1 for Au read from file:
     ./Au.blyp-d-hgh.UPF
     MD5 check sum: c10d8bae01f806c36a1643a1c69a8479
     Pseudo is Norm-conserving, Zval = 11.0
     Generated in analytical, separable form
     Using radial grid of 1279 points,  6 beta functions with:
                l(1) =   0
                l(2) =   0
                l(3) =   1
                l(4) =   1
                l(5) =   2
                l(6) =   2

     atomic species   valence    mass     pseudopotential
        Au            11.00    28.08600     Au( 1.00)

     No symmetry found

   Cartesian axes

     site n.     atom                  positions (alat units)
         1           Au  tau(   1) = (  -0.1111617   0.1581239  -0.0237562  )
         2           Au  tau(   2) = (  -0.0111295   0.2338382   0.2162360  )
         3           Au  tau(   3) = (   0.1443286   0.1184080   0.0035910  )
         4           Au  tau(   4) = (   0.2156744   0.2309259   0.2760750  )
         5           Au  tau(   5) = (   0.3555147   0.0460497   0.1272878  )

     number of k points=     1  Marzari-Vanderbilt smearing, width (Ry)=  0.0250
                       cart. coord. in units 2pi/alat
        k(    1) = (   0.0000000   0.0000000   0.0000000), wk =   2.0000000

     Initial potential from superposition of free atoms
     Check: negative starting charge=   -0.006062

     starting charge   54.99940, renormalised to   55.00000

     negative rho (up, down):  6.062E-03 0.000E+00
     Starting wfc are   45 randomized atomic wfcs

     Self-consistent Calculation

     iteration #  1     ecut=    30.00 Ry     beta=0.70
     Davidson diagonalization with overlap
     ethr =  1.00E-02,  avg # of iterations =  3.0

     Threshold (ethr) on eigenvalues was too large:
     Diagonalizing with lowered threshold

     Davidson diagonalization with overlap
     ethr =  4.50E-04,  avg # of iterations =  3.0

     negative rho (up, down):  7.993E-04 0.000E+00

     total energy              =    -329.32644464 Ry
     Harris-Foulkes estimate   =    -329.50992798 Ry
     estimated scf accuracy    <       0.30255423 Ry

[...]

     End of self-consistent calculation

          k = 0.0000 0.0000 0.0000 ( 22119 PWs)   bands (ev):

    -8.0838  -7.8084  -7.2958  -7.1303  -6.9644  -6.7036  -6.5190  -6.2563
    -6.2039  -5.8313  -5.7621  -5.6735  -5.6019  -5.5209  -5.4347  -5.3736
    -5.3101  -5.2466  -5.2095  -5.1751  -5.1311  -5.0488  -4.8940  -4.8508
    -4.8106  -4.7057  -4.3376  -4.0477  -2.5126  -2.1772  -0.4435  -0.3164
     0.5051   0.5912

     the Fermi energy is    -4.0370 ev

!    total energy              =    -329.45350470 Ry
     Harris-Foulkes estimate   =    -329.45350469 Ry
     estimated scf accuracy    <          8.5E-09 Ry

     The total energy is the sum of the following terms:

     one-electron contribution =    -591.43516436 Ry
     hartree contribution      =     317.31509569 Ry
     xc contribution           =     -51.38529975 Ry
     ewald contribution        =      -3.95462205 Ry
     smearing contrib. (-TS)   =       0.00648577 Ry

     convergence has been achieved in  13 iterations

     Forces acting on atoms (Ry/au):

     atom    1 type  1   force =     0.02192899    0.00465295    0.01410599
     atom    2 type  1   force =    -0.08400578   -0.00755649   -0.04987534
     atom    3 type  1   force =    -0.01784958    0.00562294    0.02636092
     atom    4 type  1   force =     0.09314351   -0.02016767    0.00327298
     atom    5 type  1   force =    -0.01321714    0.01744827    0.00613546

     Total force =     0.144769     Total SCF correction =     0.000320

     BFGS Geometry Optimization

     number of scf cycles    =   1
     number of bfgs steps    =   0

     energy   new            =    -329.4535046999 Ry

     new trust radius        =       0.0979878625 bohr
     new conv_thr            =       0.0000000100 Ry

ATOMIC_POSITIONS (bohr)
Au      -2.201304009   3.167131945  -0.461017013
Au      -0.306594779   4.669208511   4.274844657
Au       2.868722422   2.373782944   0.098181915
Au       4.406630509   4.598351327   5.524772981
Au       7.097076857   0.938442272   2.551890459

     Writing output data file pwscf.save
     Check: negative starting charge=   -0.006062
     NEW-OLD atomic charge density approx. for the potential
     Check: negative starting charge=   -0.006116

[...]

     energy   old            =    -329.4535046999 Ry
     energy   new            =    -329.4694359860 Ry

     CASE: energy  _new < energy  _old

[...]

     WARNING: bfgs curvature condition failed, Theta= 0.076
     new trust radius        =       0.1722009388 bohr
     new conv_thr            =       0.0000000002 Ry

[...]

     CASE: energy  _new > energy  _old

[...]

     Threshold (ethr) on eigenvalues was too large:
     Diagonalizing with lowered threshold

     Davidson diagonalization with overlap
     ethr =  6.71E-08,  avg # of iterations =  1.0

[...]

     WARNING: bfgs curvature condition failed, Theta= 0.816
     new trust radius        =       0.0329018587 bohr
     new conv_thr            =            1.0E-10 Ry

[...]

     Self-consistent Calculation

[...]

     total energy              =    -329.49369214 Ry
     Harris-Foulkes estimate   =    -329.49369217 Ry
     estimated scf accuracy    <          1.6E-10 Ry

     iteration # 10     ecut=    30.00 Ry     beta=0.70
     Davidson diagonalization with overlap
     ethr =  2.91E-13,  avg # of iterations =  3.0

     End of self-consistent calculation

          k = 0.0000 0.0000 0.0000 ( 22119 PWs)   bands (ev):

    -8.5039  -7.7702  -7.6318  -7.2090  -6.8366  -6.8107  -6.6002  -6.4650
    -6.2892  -6.0759  -5.9472  -5.7656  -5.7263  -5.6791  -5.4469  -5.3548
    -5.3055  -5.2448  -5.1989  -5.1710  -5.1689  -5.1198  -4.9911  -4.9250
    -4.8349  -4.7324  -4.4820  -3.7797  -2.4258  -2.1913  -0.5083  -0.1865
     0.5151   0.6880

     the Fermi energy is    -3.7469 ev

!    total energy              =    -329.49369214 Ry
     Harris-Foulkes estimate   =    -329.49369214 Ry
     estimated scf accuracy    <          3.1E-11 Ry

     The total energy is the sum of the following terms:

     one-electron contribution =    -604.63512465 Ry
     hartree contribution      =     323.76190455 Ry
     xc contribution           =     -51.39589395 Ry
     ewald contribution        =       2.77980942 Ry
     smearing contrib. (-TS)   =      -0.00438750 Ry

     convergence has been achieved in  10 iterations

     Forces acting on atoms (Ry/au):

     atom    1 type  1   force =    -0.00044589    0.00101193    0.00023706
     atom    2 type  1   force =     0.00062470   -0.00099603   -0.00141158
     atom    3 type  1   force =     0.00081793   -0.00067130    0.00117317
     atom    4 type  1   force =    -0.00136029    0.00085056   -0.00044141
     atom    5 type  1   force =     0.00036354   -0.00019515    0.00044276

     Total force =     0.003207     Total SCF correction =     0.000022

     number of scf cycles    =  50
     number of bfgs steps    =  48

     energy   old            =    -329.4936736445 Ry
     energy   new            =    -329.4936921372 Ry

     CASE: energy  _new < energy  _old

     new trust radius        =       0.0065997721 bohr
     new conv_thr            =            1.0E-10 Ry

ATOMIC_POSITIONS (bohr)
Au      -2.069994242   3.423104232  -0.564699146
Au      -0.246438357   5.523836662   3.810712152
Au       2.561768951   1.973643863   0.792145996
Au       4.456883731   4.045794026   5.447555768
Au       7.162310917   0.780538216   2.502958230

     Writing output data file pwscf.save
     Check: negative starting charge=   -0.006217
     NEW-OLD atomic charge density approx. for the potential
     Check: negative starting charge=   -0.006216

     negative rho (up, down):  1.978E-07 0.000E+00

     Writing output data file pwscf.save

     General routines

     Parallel routines

   This run was terminated on:  22:18:42   3Aug2017

   JOB DONE.