     Program PWSCF v.6.0 (svn rev. 13079) starts on  3Aug2017 at 11: 7:31

     Current dimensions of program PWSCF are:
     Max number of different atomic species (ntypx) = 10
     Max number of k-points (npk) =  40000
     Max angular momentum in pseudopotentials (lmaxx) =  3
     Message from routine iosys:
     pot_extrapolation='second-order' not available, using 'atomic'
     Message from routine iosys:
     wfc_extrapolation='second-order' not available, using 'atomic'

     Subspace diagonalization in iterative solution of the eigenvalue problem:
     a serial algorithm will be used

     bravais-lattice index     =            1
     lattice parameter (alat)  =      20.0000  a.u.
     unit-cell volume          =    8000.0000 (a.u.)^3
     number of atoms/cell      =            5
     number of atomic types    =            1
     number of electrons       =        55.00
     number of Kohn-Sham states=           34
     kinetic-energy cutoff     =      30.0000  Ry
     charge density cutoff     =     120.0000  Ry
     convergence threshold     =      1.0E-08
     mixing beta               =       0.7000
     number of iterations used =            8  plain     mixing
     Exchange-correlation      = BLYP ( 1  3  1  3 0 0)
     nstep                     =           50

     celldm(1)=  20.000000  celldm(2)=   0.000000  celldm(3)=   0.000000
     celldm(4)=   0.000000  celldm(5)=   0.000000  celldm(6)=   0.000000

     crystal axes: (cart. coord. in units of alat)
               a(1) = (   1.000000   0.000000   0.000000 )
               a(2) = (   0.000000   1.000000   0.000000 )
               a(3) = (   0.000000   0.000000   1.000000 )

     reciprocal axes: (cart. coord. in units 2 pi/alat)
               b(1) = (  1.000000  0.000000  0.000000 )
               b(2) = (  0.000000  1.000000  0.000000 )
               b(3) = (  0.000000  0.000000  1.000000 )

     PseudoPot. # 1 for Au read from file:
     ./Au.blyp-d-hgh.UPF
     MD5 check sum: c10d8bae01f806c36a1643a1c69a8479
     Pseudo is Norm-conserving, Zval = 11.0
     Generated in analytical, separable form
     Using radial grid of 1279 points,  6 beta functions with:
                l(1) =   0
                l(2) =   0
                l(3) =   1
                l(4) =   1
                l(5) =   2
                l(6) =   2

     atomic species   valence    mass     pseudopotential
        Au            11.00    28.08600     Au( 1.00)

     No symmetry found

   Cartesian axes

     site n.     atom                  positions (alat units)
         1           Au  tau(   1) = (  -0.0840345   0.0688816  -0.0470050  )
         2           Au  tau(   2) = (  -0.0503695   0.1790598   0.1797613  )
         3           Au  tau(   3) = (   0.1559336   0.0508801   0.0288913  )
         4           Au  tau(   4) = (   0.1848092   0.1653971   0.2795986  )
         5           Au  tau(   5) = (   0.3795708   0.0654955   0.1509059  )

     number of k points=     1  Marzari-Vanderbilt smearing, width (Ry)=  0.0250
                       cart. coord. in units 2pi/alat
        k(    1) = (   0.0000000   0.0000000   0.0000000), wk =   2.0000000

     Initial potential from superposition of free atoms
     Check: negative starting charge=   -0.006365

     starting charge   54.99940, renormalised to   55.00000

     negative rho (up, down):  6.365E-03 0.000E+00
     Starting wfc are   45 randomized atomic wfcs

     Self-consistent Calculation

     iteration #  1     ecut=    30.00 Ry     beta=0.70
     Davidson diagonalization with overlap
     ethr =  1.00E-02,  avg # of iterations =  3.0

     Threshold (ethr) on eigenvalues was too large:
     Diagonalizing with lowered threshold

     Davidson diagonalization with overlap
     ethr =  4.04E-04,  avg # of iterations =  5.0

     negative rho (up, down):  8.676E-04 0.000E+00

     total energy              =    -329.37988700 Ry
     Harris-Foulkes estimate   =    -329.54653861 Ry
     estimated scf accuracy    <       0.27722031 Ry

[...]

     End of self-consistent calculation

          k = 0.0000 0.0000 0.0000 ( 22119 PWs)   bands (ev):

    -8.3645  -7.7068  -7.6256  -7.1777  -6.9548  -6.7382  -6.7132  -6.4502
    -6.2852  -6.0428  -5.9819  -5.7497  -5.7057  -5.6555  -5.3971  -5.3624
    -5.3325  -5.2158  -5.1847  -5.1752  -5.1631  -5.1397  -5.0096  -4.8742
    -4.8544  -4.7158  -4.4015  -3.7962  -2.5303  -2.1364  -0.5364  -0.2069
     0.4896   0.8372

     the Fermi energy is    -3.7779 ev

!    total energy              =    -329.48952588 Ry
     Harris-Foulkes estimate   =    -329.48952588 Ry
     estimated scf accuracy    <          3.4E-09 Ry

     The total energy is the sum of the following terms:

     one-electron contribution =    -606.32168695 Ry
     hartree contribution      =     324.63166915 Ry
     xc contribution           =     -51.40540939 Ry
     ewald contribution        =       3.60725224 Ry
     smearing contrib. (-TS)   =      -0.00135092 Ry

     convergence has been achieved in  13 iterations

     Forces acting on atoms (Ry/au):

     atom    1 type  1   force =     0.00017834   -0.00290108   -0.00596492
     atom    2 type  1   force =     0.00069659   -0.00030520   -0.00141887
     atom    3 type  1   force =    -0.00129290    0.00755490    0.01337641
     atom    4 type  1   force =     0.00054982   -0.00070753   -0.00123335
     atom    5 type  1   force =    -0.00013186   -0.00364108   -0.00475927

     Total force =     0.017960     Total SCF correction =     0.000278

     BFGS Geometry Optimization

     number of scf cycles    =   1
     number of bfgs steps    =   0

     energy   new            =    -329.4895258810 Ry

     new trust radius        =       0.0154167573 bohr
     new conv_thr            =       0.0000000100 Ry

ATOMIC_POSITIONS (bohr)
Au      -1.680510655   1.374730919  -0.946065919
Au      -1.006694415   3.580890801   3.593807125
Au       3.117380103   1.025156897   0.591202410
Au       3.696732825   3.307234466   5.590738650
Au       7.591284142   1.306269917   3.013357733

     Writing output data file pwscf.save
     Check: negative starting charge=   -0.006365
     NEW-OLD atomic charge density approx. for the potential
     Check: negative starting charge=   -0.006369

[...]

     energy   old            =    -329.4895258810 Ry
     energy   new            =    -329.4898321090 Ry

     CASE: energy  _new < energy  _old

     WARNING: bfgs curvature condition failed, Theta= 0.886
     new trust radius        =       0.0169584330 bohr
     new conv_thr            =       0.0000000003 Ry

[...]

     WARNING: bfgs curvature condition failed, Theta= 0.049
     new trust radius        =       0.0353074737 bohr
     new conv_thr            =            1.0E-10 Ry

[...]

     iteration #  1     ecut=    30.00 Ry     beta=0.70
     Davidson diagonalization with overlap
     c_bands:  1 eigenvalues not converged
     ethr =  1.00E-06,  avg # of iterations = 20.0

[...]

     CASE: energy  _new > energy  _old

[...]

     iteration #  1     ecut=    30.00 Ry     beta=0.70
     Davidson diagonalization with overlap
     c_bands:  1 eigenvalues not converged
     ethr =  1.00E-06,  avg # of iterations = 20.0

[...]

     number of scf cycles    =  45
     number of bfgs steps    =  43

     energy   old            =    -329.4934562335 Ry
     energy   new            =    -329.4934802121 Ry

     CASE: energy  _new < energy  _old

     new trust radius        =       0.0068454598 bohr
     new conv_thr            =            1.0E-10 Ry

ATOMIC_POSITIONS (bohr)
Au      -1.691188796   1.724279566  -1.121647345
Au      -0.797671114   3.934953681   3.436315001
Au       2.912393926   0.949929691   0.837829143
Au       3.889928263   3.440920414   5.568127291
Au       7.404729721   0.544199648   3.122415910

     Writing output data file pwscf.save
     Check: negative starting charge=   -0.006319
     NEW-OLD atomic charge density approx. for the potential
     Check: negative starting charge=   -0.006323

     negative rho (up, down):  2.493E-06 0.000E+00

     Self-consistent Calculation

[...]

     Threshold (ethr) on eigenvalues was too large:
     Diagonalizing with lowered threshold

     Davidson diagonalization with overlap
     ethr =  1.55E-08,  avg # of iterations =  2.0

[...]

     total energy              =    -329.49350193 Ry
     Harris-Foulkes estimate   =    -329.49350192 Ry
     estimated scf accuracy    <          3.5E-10 Ry

     iteration #  9     ecut=    30.00 Ry     beta=0.70
     Davidson diagonalization with overlap
     ethr =  6.39E-13,  avg # of iterations =  2.0

     End of self-consistent calculation

          k = 0.0000 0.0000 0.0000 ( 22119 PWs)   bands (ev):

    -8.4976  -7.7779  -7.6559  -7.2405  -6.8513  -6.8036  -6.6194  -6.4787
    -6.3121  -6.0669  -5.9558  -5.7654  -5.7235  -5.6823  -5.4609  -5.3587
    -5.3127  -5.2438  -5.1981  -5.1768  -5.1714  -5.1195  -5.0070  -4.9200
    -4.8300  -4.7382  -4.4759  -3.7713  -2.4453  -2.1896  -0.5251  -0.1644
     0.4745   0.7794

     the Fermi energy is    -3.7380 ev

!    total energy              =    -329.49350193 Ry
     Harris-Foulkes estimate   =    -329.49350193 Ry
     estimated scf accuracy    <          2.9E-11 Ry

     The total energy is the sum of the following terms:

     one-electron contribution =    -606.34357620 Ry
     hartree contribution      =     324.60679708 Ry
     xc contribution           =     -51.39851382 Ry
     ewald contribution        =       3.64630579 Ry
     smearing contrib. (-TS)   =      -0.00451477 Ry

     convergence has been achieved in   9 iterations

     Forces acting on atoms (Ry/au):

     atom    1 type  1   force =     0.00020283    0.00009608   -0.00090541
     atom    2 type  1   force =    -0.00060235    0.00070192    0.00057788
     atom    3 type  1   force =     0.00001383   -0.00001099    0.00025539
     atom    4 type  1   force =     0.00082222   -0.00099210    0.00012186
     atom    5 type  1   force =    -0.00043653    0.00020509   -0.00004972

     Total force =     0.002009     Total SCF correction =     0.000022

     bfgs converged in  46 scf cycles and  44 bfgs steps
     (criteria: energy <  1.0E-04, force <  1.0E-03)

     End of BFGS Geometry Optimization

     Final energy   =    -329.4935019279 Ry
Begin final coordinates

ATOMIC_POSITIONS (bohr)
Au      -1.691188796   1.724279566  -1.121647345
Au      -0.797671114   3.934953681   3.436315001
Au       2.912393926   0.949929691   0.837829143
Au       3.889928263   3.440920414   5.568127291
Au       7.404729721   0.544199648   3.122415910
End final coordinates

     Writing output data file pwscf.save

     General routines

     Parallel routines

   This run was terminated on:  11: 9:41   3Aug2017

   JOB DONE.