     Program PWSCF v.6.0 (svn rev. 13079) starts on  4Aug2017 at  6:30:39

     Current dimensions of program PWSCF are:
     Max number of different atomic species (ntypx) = 10
     Max number of k-points (npk) =  40000
     Max angular momentum in pseudopotentials (lmaxx) =  3
     Message from routine iosys:
     pot_extrapolation='second-order' not available, using 'atomic'
     Message from routine iosys:
     wfc_extrapolation='second-order' not available, using 'atomic'

     Subspace diagonalization in iterative solution of the eigenvalue problem:
     a serial algorithm will be used

     bravais-lattice index     =            1
     lattice parameter (alat)  =      20.0000  a.u.
     unit-cell volume          =    8000.0000 (a.u.)^3
     number of atoms/cell      =            5
     number of atomic types    =            1
     number of electrons       =        55.00
     number of Kohn-Sham states=           34
     kinetic-energy cutoff     =      30.0000  Ry
     charge density cutoff     =     120.0000  Ry
     convergence threshold     =      1.0E-08
     mixing beta               =       0.7000
     number of iterations used =            8  plain     mixing
     Exchange-correlation      = BLYP ( 1  3  1  3 0 0)
     nstep                     =           50

     celldm(1)=  20.000000  celldm(2)=   0.000000  celldm(3)=   0.000000
     celldm(4)=   0.000000  celldm(5)=   0.000000  celldm(6)=   0.000000

     crystal axes: (cart. coord. in units of alat)
               a(1) = (   1.000000   0.000000   0.000000 )
               a(2) = (   0.000000   1.000000   0.000000 )
               a(3) = (   0.000000   0.000000   1.000000 )

     reciprocal axes: (cart. coord. in units 2 pi/alat)
               b(1) = (  1.000000  0.000000  0.000000 )
               b(2) = (  0.000000  1.000000  0.000000 )
               b(3) = (  0.000000  0.000000  1.000000 )

     PseudoPot. # 1 for Au read from file:
     ./Au.blyp-d-hgh.UPF
     MD5 check sum: c10d8bae01f806c36a1643a1c69a8479
     Pseudo is Norm-conserving, Zval = 11.0
     Generated in analytical, separable form
     Using radial grid of 1279 points,  6 beta functions with:
                l(1) =   0
                l(2) =   0
                l(3) =   1
                l(4) =   1
                l(5) =   2
                l(6) =   2

     atomic species   valence    mass     pseudopotential
        Au            11.00    28.08600     Au( 1.00)

     No symmetry found

   Cartesian axes

     site n.     atom                  positions (alat units)
         1           Au  tau(   1) = (   0.1436600   0.1650773   0.0233723  )
         2           Au  tau(   2) = (  -0.0246277   0.1883696   0.2010276  )
         3           Au  tau(   3) = (   0.1636059  -0.0664320  -0.0538942  )
         4           Au  tau(   4) = (   0.2402217   0.2343418   0.2283285  )
         5           Au  tau(   5) = (   0.2274691  -0.0040304   0.1911026  )

     number of k points=     1  Marzari-Vanderbilt smearing, width (Ry)=  0.0250
                       cart. coord. in units 2pi/alat
        k(    1) = (   0.0000000   0.0000000   0.0000000), wk =   2.0000000

     Initial potential from superposition of free atoms
     Check: negative starting charge=   -0.006296

     starting charge   54.99940, renormalised to   55.00000

     negative rho (up, down):  6.296E-03 0.000E+00
     Starting wfc are   45 randomized atomic wfcs

     Self-consistent Calculation

     iteration #  1     ecut=    30.00 Ry     beta=0.70
     Davidson diagonalization with overlap
     ethr =  1.00E-02,  avg # of iterations =  6.0

     Threshold (ethr) on eigenvalues was too large:
     Diagonalizing with lowered threshold

     Davidson diagonalization with overlap
     ethr =  3.95E-04,  avg # of iterations =  2.0

     negative rho (up, down):  7.880E-04 0.000E+00

     total energy              =    -329.28550379 Ry
     Harris-Foulkes estimate   =    -329.44701470 Ry
     estimated scf accuracy    <       0.26707502 Ry

[...]

     End of self-consistent calculation

          k = 0.0000 0.0000 0.0000 ( 22119 PWs)   bands (ev):

    -9.2592  -8.2643  -8.2185  -7.9178  -7.4620  -7.2881  -7.0566  -6.7644
    -6.6245  -6.5018  -5.8929  -5.7971  -5.7439  -5.6311  -5.5431  -5.4507
    -5.3580  -5.2402  -5.1808  -5.0794  -4.9897  -4.9600  -4.9461  -4.8175
    -4.6454  -4.5326  -4.1249  -3.4967  -2.8999  -1.9384  -0.2114  -0.0412
     0.1299   0.5724

     the Fermi energy is    -3.4736 ev

!    total energy              =    -329.38813570 Ry
     Harris-Foulkes estimate   =    -329.38813573 Ry
     estimated scf accuracy    <          3.1E-09 Ry

     The total energy is the sum of the following terms:

     one-electron contribution =    -654.43262278 Ry
     hartree contribution      =     348.47633942 Ry
     xc contribution           =     -51.53558950 Ry
     ewald contribution        =      28.10658451 Ry
     smearing contrib. (-TS)   =      -0.00284735 Ry

     convergence has been achieved in  13 iterations

     Forces acting on atoms (Ry/au):

     atom    1 type  1   force =    -0.03467799    0.01198767   -0.11657317
     atom    2 type  1   force =    -0.02552063    0.01766818    0.02653374
     atom    3 type  1   force =     0.00735549   -0.03760981   -0.01777208
     atom    4 type  1   force =     0.03731088    0.08822519    0.10070071
     atom    5 type  1   force =     0.01553225   -0.08027124    0.00711081

     Total force =     0.210806     Total SCF correction =     0.000187

     BFGS Geometry Optimization

     number of scf cycles    =   1
     number of bfgs steps    =   0

     energy   new            =    -329.3881356979 Ry

     new trust radius        =       0.1389835176 bohr
     new conv_thr            =       0.0000000100 Ry

ATOMIC_POSITIONS (bohr)
Au       2.838522015   3.313532669   0.350871826
Au      -0.518073628   3.785060185   4.047086737
Au       3.279474489  -1.366249805  -1.095656084
Au       4.841745878   4.775062190   4.667270707
Au       4.564914245  -0.160878239   3.829161815

     Writing output data file pwscf.save
     Check: negative starting charge=   -0.006296
     NEW-OLD atomic charge density approx. for the potential
     Check: negative starting charge=   -0.006183

[...]

     energy   old            =    -329.3881356979 Ry
     energy   new            =    -329.4188584397 Ry

     CASE: energy  _new < energy  _old

[...]

     WARNING: bfgs curvature condition failed, Theta= 0.959
     new trust radius        =       0.0407924883 bohr
     new conv_thr            =       0.0000000018 Ry

[...]

     CASE: energy  _new > energy  _old

[...]

     WARNING: bfgs curvature condition failed, Theta= 0.908
     new trust radius        =       0.0260002076 bohr
     new conv_thr            =       0.0000000011 Ry

[...]

     Threshold (ethr) on eigenvalues was too large:
     Diagonalizing with lowered threshold

     Davidson diagonalization with overlap
     ethr =  7.86E-08,  avg # of iterations =  1.0

[...]

     Self-consistent Calculation

[...]

     total energy              =    -329.49465098 Ry
     Harris-Foulkes estimate   =    -329.49465105 Ry
     estimated scf accuracy    <          3.4E-09 Ry

     iteration # 10     ecut=    30.00 Ry     beta=0.70
     Davidson diagonalization with overlap
     ethr =  6.24E-12,  avg # of iterations =  2.0

     End of self-consistent calculation

          k = 0.0000 0.0000 0.0000 ( 22119 PWs)   bands (ev):

    -8.4742  -7.7596  -7.6465  -7.2308  -6.8443  -6.7879  -6.5951  -6.4702
    -6.3096  -6.0548  -5.9356  -5.7520  -5.7111  -5.6679  -5.4511  -5.3540
    -5.3038  -5.2437  -5.1883  -5.1734  -5.1618  -5.1113  -4.9964  -4.9146
    -4.8326  -4.7276  -4.4812  -3.7592  -2.3888  -2.1892  -0.4878  -0.1754
     0.3707   0.6814

     the Fermi energy is    -3.7241 ev

!    total energy              =    -329.49465101 Ry
     Harris-Foulkes estimate   =    -329.49465098 Ry
     estimated scf accuracy    <          1.2E-10 Ry

     The total energy is the sum of the following terms:

     one-electron contribution =    -600.62512284 Ry
     hartree contribution      =     321.76393715 Ry
     xc contribution           =     -51.39320279 Ry
     ewald contribution        =       0.76468746 Ry
     smearing contrib. (-TS)   =      -0.00494999 Ry

     convergence has been achieved in  10 iterations

     Forces acting on atoms (Ry/au):

     atom    1 type  1   force =    -0.00066680   -0.00031037   -0.00001394
     atom    2 type  1   force =     0.00022329   -0.00038987   -0.00142089
     atom    3 type  1   force =     0.00032591    0.00064307    0.00160321
     atom    4 type  1   force =    -0.00060380    0.00008606   -0.00048294
     atom    5 type  1   force =     0.00072139   -0.00002890    0.00031456

     Total force =     0.002660     Total SCF correction =     0.000046

     number of scf cycles    =  50
     number of bfgs steps    =  48

     energy   old            =    -329.4946082485 Ry
     energy   new            =    -329.4946510088 Ry

     CASE: energy  _new < energy  _old

     new trust radius        =       0.0182878959 bohr
     new conv_thr            =            1.0E-10 Ry

ATOMIC_POSITIONS (bohr)
Au       1.533863422   2.187364289   1.006226689
Au      -0.447225598   5.840597303   3.892248486
Au       3.801967595  -1.579393028  -1.517582786
Au       4.020065560   3.885626482   5.577908461
Au       6.097912021   0.012331954   2.839934151

     Writing output data file pwscf.save
     Check: negative starting charge=   -0.005933
     NEW-OLD atomic charge density approx. for the potential
     Check: negative starting charge=   -0.005938

     negative rho (up, down):  2.577E-05 0.000E+00

     Writing output data file pwscf.save

     General routines

     Parallel routines

   This run was terminated on:   6:33: 1   4Aug2017

   JOB DONE.