     Program PWSCF v.6.0 (svn rev. 13079) starts on  3Aug2017 at 10:42: 8

     Current dimensions of program PWSCF are:
     Max number of different atomic species (ntypx) = 10
     Max number of k-points (npk) =  40000
     Max angular momentum in pseudopotentials (lmaxx) =  3
     Message from routine iosys:
     pot_extrapolation='second-order' not available, using 'atomic'
     Message from routine iosys:
     wfc_extrapolation='second-order' not available, using 'atomic'

     Subspace diagonalization in iterative solution of the eigenvalue problem:
     a serial algorithm will be used

     bravais-lattice index     =            1
     lattice parameter (alat)  =      20.0000  a.u.
     unit-cell volume          =    8000.0000 (a.u.)^3
     number of atoms/cell      =            5
     number of atomic types    =            1
     number of electrons       =        55.00
     number of Kohn-Sham states=           34
     kinetic-energy cutoff     =      30.0000  Ry
     charge density cutoff     =     120.0000  Ry
     convergence threshold     =      1.0E-08
     mixing beta               =       0.7000
     number of iterations used =            8  plain     mixing
     Exchange-correlation      = BLYP ( 1  3  1  3 0 0)
     nstep                     =           50

     celldm(1)=  20.000000  celldm(2)=   0.000000  celldm(3)=   0.000000
     celldm(4)=   0.000000  celldm(5)=   0.000000  celldm(6)=   0.000000

     crystal axes: (cart. coord. in units of alat)
               a(1) = (   1.000000   0.000000   0.000000 )
               a(2) = (   0.000000   1.000000   0.000000 )
               a(3) = (   0.000000   0.000000   1.000000 )

     reciprocal axes: (cart. coord. in units 2 pi/alat)
               b(1) = (  1.000000  0.000000  0.000000 )
               b(2) = (  0.000000  1.000000  0.000000 )
               b(3) = (  0.000000  0.000000  1.000000 )

     PseudoPot. # 1 for Au read from file:
     ./Au.blyp-d-hgh.UPF
     MD5 check sum: c10d8bae01f806c36a1643a1c69a8479
     Pseudo is Norm-conserving, Zval = 11.0
     Generated in analytical, separable form
     Using radial grid of 1279 points,  6 beta functions with:
                l(1) =   0
                l(2) =   0
                l(3) =   1
                l(4) =   1
                l(5) =   2
                l(6) =   2

     atomic species   valence    mass     pseudopotential
        Au            11.00    28.08600     Au( 1.00)

     No symmetry found

   Cartesian axes

     site n.     atom                  positions (alat units)
         1           Au  tau(   1) = (  -0.0896418   0.0882483  -0.0587228  )
         2           Au  tau(   2) = (  -0.0406367   0.1682462   0.1829106  )
         3           Au  tau(   3) = (   0.1542154   0.0960732   0.0304615  )
         4           Au  tau(   4) = (   0.1921915   0.1244609   0.3014079  )
         5           Au  tau(   5) = (   0.3788165   0.0536289   0.1379631  )

     number of k points=     1  Marzari-Vanderbilt smearing, width (Ry)=  0.0250
                       cart. coord. in units 2pi/alat
        k(    1) = (   0.0000000   0.0000000   0.0000000), wk =   2.0000000

     Initial potential from superposition of free atoms
     Check: negative starting charge=   -0.006521

     starting charge   54.99940, renormalised to   55.00000

     negative rho (up, down):  6.522E-03 0.000E+00
     Starting wfc are   45 randomized atomic wfcs

     Self-consistent Calculation

     iteration #  1     ecut=    30.00 Ry     beta=0.70
     Davidson diagonalization with overlap
     ethr =  1.00E-02,  avg # of iterations =  3.0

     Threshold (ethr) on eigenvalues was too large:
     Diagonalizing with lowered threshold

     Davidson diagonalization with overlap
     ethr =  4.05E-04,  avg # of iterations =  5.0

     negative rho (up, down):  9.068E-04 0.000E+00

     total energy              =    -329.38064126 Ry
     Harris-Foulkes estimate   =    -329.54620283 Ry
     estimated scf accuracy    <       0.27614286 Ry

[...]

     End of self-consistent calculation

          k = 0.0000 0.0000 0.0000 ( 22119 PWs)   bands (ev):

    -8.4833  -7.7951  -7.6565  -7.2164  -6.8293  -6.8257  -6.6018  -6.5145
    -6.2678  -6.0963  -5.9105  -5.7948  -5.6580  -5.6303  -5.5030  -5.3805
    -5.3010  -5.2409  -5.2017  -5.1840  -5.1565  -5.1138  -5.0211  -4.9768
    -4.8455  -4.6802  -4.5407  -3.7282  -2.5060  -2.2591  -0.5500  -0.1544
     0.3691   0.8940

     the Fermi energy is    -3.6865 ev

!    total energy              =    -329.48746832 Ry
     Harris-Foulkes estimate   =    -329.48746841 Ry
     estimated scf accuracy    <          8.0E-09 Ry

     The total energy is the sum of the following terms:

     one-electron contribution =    -606.49569333 Ry
     hartree contribution      =     324.68033219 Ry
     xc contribution           =     -51.38962747 Ry
     ewald contribution        =       3.72404530 Ry
     smearing contrib. (-TS)   =      -0.00652502 Ry

     convergence has been achieved in  11 iterations

     Forces acting on atoms (Ry/au):

     atom    1 type  1   force =     0.01169277    0.00298945    0.00486066
     atom    2 type  1   force =    -0.00172223    0.00050824    0.00916032
     atom    3 type  1   force =    -0.00310423   -0.00887664   -0.01006402
     atom    4 type  1   force =    -0.00578244    0.00324326   -0.00359151
     atom    5 type  1   force =    -0.00108387    0.00213568   -0.00036546

     Total force =     0.022558     Total SCF correction =     0.000404

     BFGS Geometry Optimization

     number of scf cycles    =   1
     number of bfgs steps    =   0

     energy   new            =    -329.4874683213 Ry

     new trust radius        =       0.0137737240 bohr
     new conv_thr            =       0.0000000100 Ry

ATOMIC_POSITIONS (bohr)
Au      -1.781143231   1.767954453  -1.169594336
Au      -0.814455231   3.365432240   3.667372323
Au       3.081202771   1.912587364   0.599164977
Au       3.838047558   2.492461260   6.024565494
Au       7.575247133   1.074713684   2.758895542

     Writing output data file pwscf.save
     Check: negative starting charge=   -0.006521
     NEW-OLD atomic charge density approx. for the potential
     Check: negative starting charge=   -0.006529

[...]

     energy   old            =    -329.4874683213 Ry
     energy   new            =    -329.4879535151 Ry

     CASE: energy  _new < energy  _old

     WARNING: bfgs curvature condition failed, Theta= 0.881
     new trust radius        =       0.0151510964 bohr
     new conv_thr            =       0.0000000005 Ry

[...]

     CASE: energy  _new > energy  _old

[...]

     WARNING: bfgs curvature condition failed, Theta= 0.973
     new trust radius        =       0.0034593498 bohr
     new conv_thr            =            1.0E-10 Ry

[...]

     number of scf cycles    =  46
     number of bfgs steps    =  44

     energy   old            =    -329.4928520409 Ry
     energy   new            =    -329.4928762609 Ry

     CASE: energy  _new < energy  _old

     new trust radius        =       0.0089924818 bohr
     new conv_thr            =            1.0E-10 Ry

ATOMIC_POSITIONS (bohr)
Au      -1.667819304   2.298880902  -1.146725414
Au      -0.821194110   3.418394865   3.832702104
Au       2.989764558   1.407365068   0.595463871
Au       3.890081130   2.738732844   5.845160786
Au       7.508066726   0.749775321   2.753802654

     Writing output data file pwscf.save
     Check: negative starting charge=   -0.006431
     NEW-OLD atomic charge density approx. for the potential
     Check: negative starting charge=   -0.006427

[...]

     Self-consistent Calculation

[...]

     Threshold (ethr) on eigenvalues was too large:
     Diagonalizing with lowered threshold

     Davidson diagonalization with overlap
     ethr =  3.85E-08,  avg # of iterations =  2.0

     negative rho (up, down):  1.113E-08 0.000E+00

[...]

     total energy              =    -329.49288839 Ry
     Harris-Foulkes estimate   =    -329.49288843 Ry
     estimated scf accuracy    <          1.1E-09 Ry

     iteration #  9     ecut=    30.00 Ry     beta=0.70
     Davidson diagonalization with overlap
     ethr =  1.96E-12,  avg # of iterations =  2.0

     End of self-consistent calculation

          k = 0.0000 0.0000 0.0000 ( 22119 PWs)   bands (ev):

    -8.5025  -7.7721  -7.6566  -7.2325  -6.8651  -6.8098  -6.6069  -6.4794
    -6.3114  -6.0708  -5.9546  -5.7712  -5.7287  -5.6859  -5.4505  -5.3622
    -5.3186  -5.2447  -5.2009  -5.1823  -5.1710  -5.1241  -5.0016  -4.9204
    -4.8455  -4.7307  -4.4795  -3.7781  -2.4495  -2.2055  -0.5492  -0.2036
     0.4641   0.8222

     the Fermi energy is    -3.7454 ev

!    total energy              =    -329.49288835 Ry
     Harris-Foulkes estimate   =    -329.49288839 Ry
     estimated scf accuracy    <          6.7E-11 Ry

     The total energy is the sum of the following terms:

     one-electron contribution =    -607.64892836 Ry
     hartree contribution      =     325.25755882 Ry
     xc contribution           =     -51.39993958 Ry
     ewald contribution        =       4.30280250 Ry
     smearing contrib. (-TS)   =      -0.00438174 Ry

     convergence has been achieved in   9 iterations

     Forces acting on atoms (Ry/au):

     atom    1 type  1   force =    -0.00030575    0.00023814   -0.00033397
     atom    2 type  1   force =    -0.00030094    0.00027956   -0.00028617
     atom    3 type  1   force =     0.00078832    0.00031775    0.00074834
     atom    4 type  1   force =     0.00072733   -0.00081296   -0.00060892
     atom    5 type  1   force =    -0.00090896   -0.00002250    0.00048072

     Total force =     0.002101     Total SCF correction =     0.000032

     bfgs converged in  47 scf cycles and  45 bfgs steps
     (criteria: energy <  1.0E-04, force <  1.0E-03)

     End of BFGS Geometry Optimization

     Final energy   =    -329.4928883548 Ry
Begin final coordinates

ATOMIC_POSITIONS (bohr)
Au      -1.667819304   2.298880902  -1.146725414
Au      -0.821194110   3.418394865   3.832702104
Au       2.989764558   1.407365068   0.595463871
Au       3.890081130   2.738732844   5.845160786
Au       7.508066726   0.749775321   2.753802654
End final coordinates

     Writing output data file pwscf.save

     General routines

     Parallel routines

   This run was terminated on:  10:45:12   3Aug2017

   JOB DONE.