     Program PWSCF v.6.0 (svn rev. 13079) starts on  3Aug2017 at 15:49: 4

     Current dimensions of program PWSCF are:
     Max number of different atomic species (ntypx) = 10
     Max number of k-points (npk) =  40000
     Max angular momentum in pseudopotentials (lmaxx) =  3
     Message from routine iosys:
     pot_extrapolation='second-order' not available, using 'atomic'
     Message from routine iosys:
     wfc_extrapolation='second-order' not available, using 'atomic'

     Subspace diagonalization in iterative solution of the eigenvalue problem:
     a serial algorithm will be used

     bravais-lattice index     =            1
     lattice parameter (alat)  =      20.0000  a.u.
     unit-cell volume          =    8000.0000 (a.u.)^3
     number of atoms/cell      =            5
     number of atomic types    =            1
     number of electrons       =        55.00
     number of Kohn-Sham states=           34
     kinetic-energy cutoff     =      30.0000  Ry
     charge density cutoff     =     120.0000  Ry
     convergence threshold     =      1.0E-08
     mixing beta               =       0.7000
     number of iterations used =            8  plain     mixing
     Exchange-correlation      = BLYP ( 1  3  1  3 0 0)
     nstep                     =           50

     celldm(1)=  20.000000  celldm(2)=   0.000000  celldm(3)=   0.000000
     celldm(4)=   0.000000  celldm(5)=   0.000000  celldm(6)=   0.000000

     crystal axes: (cart. coord. in units of alat)
               a(1) = (   1.000000   0.000000   0.000000 )
               a(2) = (   0.000000   1.000000   0.000000 )
               a(3) = (   0.000000   0.000000   1.000000 )

     reciprocal axes: (cart. coord. in units 2 pi/alat)
               b(1) = (  1.000000  0.000000  0.000000 )
               b(2) = (  0.000000  1.000000  0.000000 )
               b(3) = (  0.000000  0.000000  1.000000 )

     PseudoPot. # 1 for Au read from file:
     ./Au.blyp-d-hgh.UPF
     MD5 check sum: c10d8bae01f806c36a1643a1c69a8479
     Pseudo is Norm-conserving, Zval = 11.0
     Generated in analytical, separable form
     Using radial grid of 1279 points,  6 beta functions with:
                l(1) =   0
                l(2) =   0
                l(3) =   1
                l(4) =   1
                l(5) =   2
                l(6) =   2

     atomic species   valence    mass     pseudopotential
        Au            11.00    28.08600     Au( 1.00)

     No symmetry found

   Cartesian axes

     site n.     atom                  positions (alat units)
         1           Au  tau(   1) = (  -0.0857923   0.0634690  -0.0261635  )
         2           Au  tau(   2) = (  -0.0421561   0.1844666   0.1923091  )
         3           Au  tau(   3) = (   0.1579889   0.0563009   0.0335667  )
         4           Au  tau(   4) = (   0.2040959   0.2165000   0.2551461  )
         5           Au  tau(   5) = (   0.3823239   0.0718871   0.1478374  )

     number of k points=     1  Marzari-Vanderbilt smearing, width (Ry)=  0.0250
                       cart. coord. in units 2pi/alat
        k(    1) = (   0.0000000   0.0000000   0.0000000), wk =   2.0000000

     Initial potential from superposition of free atoms
     Check: negative starting charge=   -0.006332

     starting charge   54.99940, renormalised to   55.00000

     negative rho (up, down):  6.332E-03 0.000E+00
     Starting wfc are   45 randomized atomic wfcs

     Self-consistent Calculation

     iteration #  1     ecut=    30.00 Ry     beta=0.70
     Davidson diagonalization with overlap
     ethr =  1.00E-02,  avg # of iterations =  3.0

     Threshold (ethr) on eigenvalues was too large:
     Diagonalizing with lowered threshold

     Davidson diagonalization with overlap
     ethr =  4.01E-04,  avg # of iterations =  7.0

     negative rho (up, down):  8.380E-04 0.000E+00

     total energy              =    -329.37717437 Ry
     Harris-Foulkes estimate   =    -329.54514585 Ry
     estimated scf accuracy    <       0.27906533 Ry

[...]

     End of self-consistent calculation

          k = 0.0000 0.0000 0.0000 ( 22119 PWs)   bands (ev):

    -8.4105  -7.7412  -7.6326  -7.1752  -6.9765  -6.7815  -6.7527  -6.4545
    -6.2623  -6.0736  -5.9842  -5.7579  -5.7257  -5.6623  -5.4199  -5.3268
    -5.3183  -5.2240  -5.1782  -5.1738  -5.1621  -5.1362  -4.9779  -4.8957
    -4.8482  -4.6767  -4.3893  -3.7859  -2.5076  -2.1382  -0.5246  -0.1916
     0.5450   0.7650

     the Fermi energy is    -3.7688 ev

!    total energy              =    -329.48786965 Ry
     Harris-Foulkes estimate   =    -329.48786967 Ry
     estimated scf accuracy    <          2.7E-09 Ry

     The total energy is the sum of the following terms:

     one-electron contribution =    -608.74538412 Ry
     hartree contribution      =     325.84077576 Ry
     xc contribution           =     -51.41547714 Ry
     ewald contribution        =       4.83330745 Ry
     smearing contrib. (-TS)   =      -0.00109160 Ry

     convergence has been achieved in  13 iterations

     Forces acting on atoms (Ry/au):

     atom    1 type  1   force =    -0.00422473   -0.00298873   -0.00900550
     atom    2 type  1   force =     0.00050300    0.00097773    0.00016704
     atom    3 type  1   force =    -0.00422134    0.00603866    0.01094573
     atom    4 type  1   force =     0.00031724    0.00077170    0.00055828
     atom    5 type  1   force =     0.00762582   -0.00479936   -0.00266556

     Total force =     0.019301     Total SCF correction =     0.000239

     BFGS Geometry Optimization

     number of scf cycles    =   1
     number of bfgs steps    =   0

     energy   new            =    -329.4878696482 Ry

     new trust radius        =       0.0131944742 bohr
     new conv_thr            =       0.0000000100 Ry

ATOMIC_POSITIONS (bohr)
Au      -1.720069727   1.266392268  -0.532275496
Au      -0.842618999   3.690309730   3.846350043
Au       3.155557662   1.132056659   0.682280732
Au       4.082236241   4.330772702   5.103480278
Au       7.654103822   1.432942642   2.954083443

     Writing output data file pwscf.save
     Check: negative starting charge=   -0.006332
     NEW-OLD atomic charge density approx. for the potential
     Check: negative starting charge=   -0.006336

[...]

     energy   old            =    -329.4878696482 Ry
     energy   new            =    -329.4882267000 Ry

     CASE: energy  _new < energy  _old

     WARNING: bfgs curvature condition failed, Theta= 0.877
     new trust radius        =       0.0145139216 bohr
     new conv_thr            =       0.0000000004 Ry

[...]

     number of scf cycles    =  30
     number of bfgs steps    =  29

     energy   old            =    -329.4920786714 Ry
     energy   new            =    -329.4920892513 Ry

     CASE: energy  _new < energy  _old

     new trust radius        =       0.0098796769 bohr
     new conv_thr            =            1.0E-10 Ry

ATOMIC_POSITIONS (bohr)
Au      -1.798239166   1.089316704  -0.562810701
Au      -0.758448648   3.945068973   3.606043614
Au       3.035785343   1.149905859   0.924952751
Au       4.137071941   4.229768531   5.274783152
Au       7.713039530   1.438413933   2.810950184

     Writing output data file pwscf.save
     Check: negative starting charge=   -0.006420
     NEW-OLD atomic charge density approx. for the potential
     Check: negative starting charge=   -0.006414

     negative rho (up, down):  3.580E-06 0.000E+00

     Self-consistent Calculation

[...]

     Threshold (ethr) on eigenvalues was too large:
     Diagonalizing with lowered threshold

     Davidson diagonalization with overlap
     ethr =  2.25E-08,  avg # of iterations =  2.0

[...]

     total energy              =    -329.49210190 Ry
     Harris-Foulkes estimate   =    -329.49210190 Ry
     estimated scf accuracy    <          2.9E-10 Ry

     iteration #  9     ecut=    30.00 Ry     beta=0.70
     Davidson diagonalization with overlap
     ethr =  5.36E-13,  avg # of iterations =  3.0

     End of self-consistent calculation

          k = 0.0000 0.0000 0.0000 ( 22119 PWs)   bands (ev):

    -8.5031  -7.7804  -7.6501  -7.2334  -6.8479  -6.8132  -6.6155  -6.4790
    -6.3071  -6.0728  -5.9554  -5.7678  -5.7286  -5.6834  -5.4612  -5.3621
    -5.3123  -5.2420  -5.1998  -5.1802  -5.1733  -5.1227  -5.0020  -4.9175
    -4.8311  -4.7389  -4.4739  -3.7805  -2.4939  -2.1879  -0.5474  -0.1590
     0.5166   0.8659

     the Fermi energy is    -3.7487 ev

!    total energy              =    -329.49210190 Ry
     Harris-Foulkes estimate   =    -329.49210190 Ry
     estimated scf accuracy    <          6.6E-11 Ry

     The total energy is the sum of the following terms:

     one-electron contribution =    -607.99907007 Ry
     hartree contribution      =     325.43470403 Ry
     xc contribution           =     -51.40069595 Ry
     ewald contribution        =       4.47713763 Ry
     smearing contrib. (-TS)   =      -0.00417754 Ry

     convergence has been achieved in   9 iterations

     Forces acting on atoms (Ry/au):

     atom    1 type  1   force =     0.00059029    0.00076650   -0.00025881
     atom    2 type  1   force =    -0.00020368   -0.00004318   -0.00038422
     atom    3 type  1   force =    -0.00028809   -0.00073733   -0.00009930
     atom    4 type  1   force =     0.00056401    0.00015502    0.00027427
     atom    5 type  1   force =    -0.00066253   -0.00014101    0.00046808

     Total force =     0.001710     Total SCF correction =     0.000032

     bfgs converged in  31 scf cycles and  30 bfgs steps
     (criteria: energy <  1.0E-04, force <  1.0E-03)

     End of BFGS Geometry Optimization

     Final energy   =    -329.4921019044 Ry
Begin final coordinates

ATOMIC_POSITIONS (bohr)
Au      -1.798239166   1.089316704  -0.562810701
Au      -0.758448648   3.945068973   3.606043614
Au       3.035785343   1.149905859   0.924952751
Au       4.137071941   4.229768531   5.274783152
Au       7.713039530   1.438413933   2.810950184
End final coordinates

     Writing output data file pwscf.save

     General routines

     Parallel routines

   This run was terminated on:  15:50:32   3Aug2017

   JOB DONE.