     Program PWSCF v.6.0 (svn rev. 13079) starts on  4Aug2017 at  0:44:29

     Current dimensions of program PWSCF are:
     Max number of different atomic species (ntypx) = 10
     Max number of k-points (npk) =  40000
     Max angular momentum in pseudopotentials (lmaxx) =  3
     Message from routine iosys:
     pot_extrapolation='second-order' not available, using 'atomic'
     Message from routine iosys:
     wfc_extrapolation='second-order' not available, using 'atomic'

     Subspace diagonalization in iterative solution of the eigenvalue problem:
     a serial algorithm will be used

     bravais-lattice index     =            1
     lattice parameter (alat)  =      20.0000  a.u.
     unit-cell volume          =    8000.0000 (a.u.)^3
     number of atoms/cell      =            5
     number of atomic types    =            1
     number of electrons       =        55.00
     number of Kohn-Sham states=           34
     kinetic-energy cutoff     =      30.0000  Ry
     charge density cutoff     =     120.0000  Ry
     convergence threshold     =      1.0E-08
     mixing beta               =       0.7000
     number of iterations used =            8  plain     mixing
     Exchange-correlation      = BLYP ( 1  3  1  3 0 0)
     nstep                     =           50

     celldm(1)=  20.000000  celldm(2)=   0.000000  celldm(3)=   0.000000
     celldm(4)=   0.000000  celldm(5)=   0.000000  celldm(6)=   0.000000

     crystal axes: (cart. coord. in units of alat)
               a(1) = (   1.000000   0.000000   0.000000 )
               a(2) = (   0.000000   1.000000   0.000000 )
               a(3) = (   0.000000   0.000000   1.000000 )

     reciprocal axes: (cart. coord. in units 2 pi/alat)
               b(1) = (  1.000000  0.000000  0.000000 )
               b(2) = (  0.000000  1.000000  0.000000 )
               b(3) = (  0.000000  0.000000  1.000000 )

     PseudoPot. # 1 for Au read from file:
     ./Au.blyp-d-hgh.UPF
     MD5 check sum: c10d8bae01f806c36a1643a1c69a8479
     Pseudo is Norm-conserving, Zval = 11.0
     Generated in analytical, separable form
     Using radial grid of 1279 points,  6 beta functions with:
                l(1) =   0
                l(2) =   0
                l(3) =   1
                l(4) =   1
                l(5) =   2
                l(6) =   2

     atomic species   valence    mass     pseudopotential
        Au            11.00    28.08600     Au( 1.00)

     No symmetry found

   Cartesian axes

     site n.     atom                  positions (alat units)
         1           Au  tau(   1) = (  -0.0938124   0.2199168  -0.0305150  )
         2           Au  tau(   2) = (  -0.0015799   0.1261956   0.2162308  )
         3           Au  tau(   3) = (   0.1375751   0.1432216   0.0075890  )
         4           Au  tau(   4) = (   0.2318219   0.2259901   0.2828621  )
         5           Au  tau(   5) = (   0.3271667   0.0451411   0.1321033  )

     number of k points=     1  Marzari-Vanderbilt smearing, width (Ry)=  0.0250
                       cart. coord. in units 2pi/alat
        k(    1) = (   0.0000000   0.0000000   0.0000000), wk =   2.0000000

     Initial potential from superposition of free atoms
     Check: negative starting charge=   -0.006011

     starting charge   54.99940, renormalised to   55.00000

     negative rho (up, down):  6.011E-03 0.000E+00
     Starting wfc are   45 randomized atomic wfcs

     Self-consistent Calculation

     iteration #  1     ecut=    30.00 Ry     beta=0.70
     Davidson diagonalization with overlap
     ethr =  1.00E-02,  avg # of iterations =  3.0

     Threshold (ethr) on eigenvalues was too large:
     Diagonalizing with lowered threshold

     Davidson diagonalization with overlap
     ethr =  3.87E-04,  avg # of iterations =  8.0

     negative rho (up, down):  7.720E-04 0.000E+00

     total energy              =    -329.34931642 Ry
     Harris-Foulkes estimate   =    -329.51242242 Ry
     estimated scf accuracy    <       0.27204918 Ry

[...]

     End of self-consistent calculation

          k = 0.0000 0.0000 0.0000 ( 22119 PWs)   bands (ev):

    -8.4416  -7.8408  -7.7044  -7.1760  -6.9240  -6.8250  -6.6954  -6.4432
    -6.2709  -5.9461  -5.8469  -5.7619  -5.7568  -5.6038  -5.5445  -5.4494
    -5.2653  -5.2397  -5.1655  -5.0938  -5.0825  -5.0094  -4.9586  -4.8858
    -4.8373  -4.4890  -4.3978  -3.5550  -2.7187  -2.1962  -0.2174  -0.0469
     0.2311   0.5789

     the Fermi energy is    -3.5122 ev

!    total energy              =    -329.45389869 Ry
     Harris-Foulkes estimate   =    -329.45389873 Ry
     estimated scf accuracy    <          3.2E-09 Ry

     The total energy is the sum of the following terms:

     one-electron contribution =    -612.82914383 Ry
     hartree contribution      =     327.92392316 Ry
     xc contribution           =     -51.41012642 Ry
     ewald contribution        =       6.86828558 Ry
     smearing contrib. (-TS)   =      -0.00683717 Ry

     convergence has been achieved in  12 iterations

     Forces acting on atoms (Ry/au):

     atom    1 type  1   force =    -0.01357346   -0.00129060    0.00888352
     atom    2 type  1   force =    -0.01396275    0.01819870    0.00792083
     atom    3 type  1   force =     0.01226661    0.00050485   -0.02117903
     atom    4 type  1   force =    -0.00979052   -0.00861147    0.00271157
     atom    5 type  1   force =     0.02506011   -0.00880148    0.00166310

     Total force =     0.048359     Total SCF correction =     0.000218

     BFGS Geometry Optimization

     number of scf cycles    =   1
     number of bfgs steps    =   0

     energy   new            =    -329.4538986860 Ry

     new trust radius        =       0.0266127997 bohr
     new conv_thr            =       0.0000000100 Ry

ATOMIC_POSITIONS (bohr)
Au      -1.889820456   4.397046399  -0.601415475
Au      -0.045560747   2.542110699   4.332536828
Au       2.763767614   2.864935854   0.130600972
Au       4.626648480   4.511191533   5.659953571
Au       6.568394109   0.894020516   2.643728105

     Writing output data file pwscf.save
     Check: negative starting charge=   -0.006011
     NEW-OLD atomic charge density approx. for the potential
     Check: negative starting charge=   -0.005995

[...]

     energy   old            =    -329.4538986860 Ry
     energy   new            =    -329.4560504499 Ry

     CASE: energy  _new < energy  _old

     WARNING: bfgs curvature condition failed, Theta= 0.952
     new trust radius        =       0.0292740797 bohr
     new conv_thr            =       0.0000000021 Ry

[...]

     iteration #  1     ecut=    30.00 Ry     beta=0.70
     Davidson diagonalization with overlap
     c_bands:  1 eigenvalues not converged
     ethr =  1.00E-06,  avg # of iterations = 20.0

[...]

     WARNING: bfgs curvature condition failed, Theta= 0.960
     new trust radius        =       0.0405250325 bohr
     new conv_thr            =       0.0000000008 Ry

[...]

     number of scf cycles    =  39
     number of bfgs steps    =  38

     energy   old            =    -329.4923238059 Ry
     energy   new            =    -329.4923533210 Ry

     CASE: energy  _new < energy  _old

     new trust radius        =       0.0154389285 bohr
     new conv_thr            =            1.0E-10 Ry

ATOMIC_POSITIONS (bohr)
Au      -1.997875649   3.831925161  -0.540436296
Au      -0.553886157   4.250060306   4.406429184
Au       2.748796100   2.483853416   0.550911799
Au       4.377990464   3.273941169   5.713951301
Au       7.448404241   1.369524949   2.034548011

     Writing output data file pwscf.save
     Check: negative starting charge=   -0.006405
     NEW-OLD atomic charge density approx. for the potential
     Check: negative starting charge=   -0.006409

[...]

     Self-consistent Calculation

[...]

     Threshold (ethr) on eigenvalues was too large:
     Diagonalizing with lowered threshold

     Davidson diagonalization with overlap
     ethr =  6.97E-08,  avg # of iterations =  1.0

     negative rho (up, down):  6.954E-08 0.000E+00

[...]

     total energy              =    -329.49237028 Ry
     Harris-Foulkes estimate   =    -329.49237025 Ry
     estimated scf accuracy    <          2.7E-10 Ry

     iteration # 10     ecut=    30.00 Ry     beta=0.70
     Davidson diagonalization with overlap
     ethr =  4.92E-13,  avg # of iterations =  3.0

     End of self-consistent calculation

          k = 0.0000 0.0000 0.0000 ( 22119 PWs)   bands (ev):

    -8.5105  -7.7849  -7.6478  -7.2302  -6.8462  -6.8134  -6.6137  -6.4810
    -6.2977  -6.0770  -5.9555  -5.7663  -5.7257  -5.6850  -5.4605  -5.3593
    -5.3097  -5.2483  -5.1994  -5.1800  -5.1700  -5.1245  -5.0009  -4.9299
    -4.8381  -4.7280  -4.4845  -3.7763  -2.4640  -2.1938  -0.5448  -0.2220
     0.5231   0.7778

     the Fermi energy is    -3.7428 ev

!    total energy              =    -329.49237028 Ry
     Harris-Foulkes estimate   =    -329.49237028 Ry
     estimated scf accuracy    <          1.9E-11 Ry

     The total energy is the sum of the following terms:

     one-electron contribution =    -607.64563685 Ry
     hartree contribution      =     325.25654382 Ry
     xc contribution           =     -51.39943442 Ry
     ewald contribution        =       4.30070101 Ry
     smearing contrib. (-TS)   =      -0.00454384 Ry

     convergence has been achieved in  10 iterations

     Forces acting on atoms (Ry/au):

     atom    1 type  1   force =    -0.00019129   -0.00006594   -0.00042718
     atom    2 type  1   force =     0.00021778    0.00053596    0.00093415
     atom    3 type  1   force =     0.00035094   -0.00056291   -0.00064174
     atom    4 type  1   force =     0.00003554    0.00044716    0.00020135
     atom    5 type  1   force =    -0.00041296   -0.00035427   -0.00006658

     Total force =     0.001681     Total SCF correction =     0.000021

     bfgs converged in  40 scf cycles and  39 bfgs steps
     (criteria: energy <  1.0E-04, force <  1.0E-03)

     End of BFGS Geometry Optimization

     Final energy   =    -329.4923702754 Ry
Begin final coordinates

ATOMIC_POSITIONS (bohr)
Au      -1.997875649   3.831925161  -0.540436296
Au      -0.553886157   4.250060306   4.406429184
Au       2.748796100   2.483853416   0.550911799
Au       4.377990464   3.273941169   5.713951301
Au       7.448404241   1.369524949   2.034548011
End final coordinates

     Writing output data file pwscf.save

     General routines

     Parallel routines

   This run was terminated on:   0:46:11   4Aug2017

   JOB DONE.