     Program PWSCF v.6.0 (svn rev. 13079) starts on  4Aug2017 at  2:30:51

     Current dimensions of program PWSCF are:
     Max number of different atomic species (ntypx) = 10
     Max number of k-points (npk) =  40000
     Max angular momentum in pseudopotentials (lmaxx) =  3
     Message from routine iosys:
     pot_extrapolation='second-order' not available, using 'atomic'
     Message from routine iosys:
     wfc_extrapolation='second-order' not available, using 'atomic'

     Subspace diagonalization in iterative solution of the eigenvalue problem:
     a serial algorithm will be used

     bravais-lattice index     =            1
     lattice parameter (alat)  =      20.0000  a.u.
     unit-cell volume          =    8000.0000 (a.u.)^3
     number of atoms/cell      =            5
     number of atomic types    =            1
     number of electrons       =        55.00
     number of Kohn-Sham states=           34
     kinetic-energy cutoff     =      30.0000  Ry
     charge density cutoff     =     120.0000  Ry
     convergence threshold     =      1.0E-08
     mixing beta               =       0.7000
     number of iterations used =            8  plain     mixing
     Exchange-correlation      = BLYP ( 1  3  1  3 0 0)
     nstep                     =           50

     celldm(1)=  20.000000  celldm(2)=   0.000000  celldm(3)=   0.000000
     celldm(4)=   0.000000  celldm(5)=   0.000000  celldm(6)=   0.000000

     crystal axes: (cart. coord. in units of alat)
               a(1) = (   1.000000   0.000000   0.000000 )
               a(2) = (   0.000000   1.000000   0.000000 )
               a(3) = (   0.000000   0.000000   1.000000 )

     reciprocal axes: (cart. coord. in units 2 pi/alat)
               b(1) = (  1.000000  0.000000  0.000000 )
               b(2) = (  0.000000  1.000000  0.000000 )
               b(3) = (  0.000000  0.000000  1.000000 )

     PseudoPot. # 1 for Au read from file:
     ./Au.blyp-d-hgh.UPF
     MD5 check sum: c10d8bae01f806c36a1643a1c69a8479
     Pseudo is Norm-conserving, Zval = 11.0
     Generated in analytical, separable form
     Using radial grid of 1279 points,  6 beta functions with:
                l(1) =   0
                l(2) =   0
                l(3) =   1
                l(4) =   1
                l(5) =   2
                l(6) =   2

     atomic species   valence    mass     pseudopotential
        Au            11.00    28.08600     Au( 1.00)

     No symmetry found

   Cartesian axes

     site n.     atom                  positions (alat units)
         1           Au  tau(   1) = (  -0.0774080   0.0583437  -0.0141502  )
         2           Au  tau(   2) = (   0.0008235   0.1565491   0.2049748  )
         3           Au  tau(   3) = (   0.1616727   0.1440432  -0.0125431  )
         4           Au  tau(   4) = (   0.2321615   0.2379974   0.2827856  )
         5           Au  tau(   5) = (   0.3104806   0.0297222   0.1476189  )

     number of k points=     1  Marzari-Vanderbilt smearing, width (Ry)=  0.0250
                       cart. coord. in units 2pi/alat
        k(    1) = (   0.0000000   0.0000000   0.0000000), wk =   2.0000000

     Initial potential from superposition of free atoms
     Check: negative starting charge=   -0.006201

     starting charge   54.99940, renormalised to   55.00000

     negative rho (up, down):  6.201E-03 0.000E+00
     Starting wfc are   45 randomized atomic wfcs

     Self-consistent Calculation

     iteration #  1     ecut=    30.00 Ry     beta=0.70
     Davidson diagonalization with overlap
     ethr =  1.00E-02,  avg # of iterations =  5.0

     Threshold (ethr) on eigenvalues was too large:
     Diagonalizing with lowered threshold

     Davidson diagonalization with overlap
     ethr =  3.67E-04,  avg # of iterations =  3.0

     negative rho (up, down):  8.252E-04 0.000E+00

     total energy              =    -329.34835114 Ry
     Harris-Foulkes estimate   =    -329.50141301 Ry
     estimated scf accuracy    <       0.25641637 Ry

[...]

     End of self-consistent calculation

          k = 0.0000 0.0000 0.0000 ( 22119 PWs)   bands (ev):

    -8.1188  -7.6859  -7.3970  -7.2239  -6.9311  -6.8366  -6.6208  -6.5051
    -6.4428  -6.0330  -5.9113  -5.7131  -5.6175  -5.5506  -5.5024  -5.3805
    -5.2726  -5.2299  -5.1532  -5.0898  -5.0334  -5.0208  -4.8803  -4.8471
    -4.6520  -4.5010  -4.2341  -3.6843  -2.5803  -2.2470  -0.3166  -0.1368
     0.2970   0.5548

     the Fermi energy is    -3.6803 ev

!    total energy              =    -329.45108693 Ry
     Harris-Foulkes estimate   =    -329.45108693 Ry
     estimated scf accuracy    <          3.4E-09 Ry

     The total energy is the sum of the following terms:

     one-electron contribution =    -613.97491069 Ry
     hartree contribution      =     328.58247050 Ry
     xc contribution           =     -51.41171788 Ry
     ewald contribution        =       7.35142426 Ry
     smearing contrib. (-TS)   =       0.00164688 Ry

     convergence has been achieved in  12 iterations

     Forces acting on atoms (Ry/au):

     atom    1 type  1   force =    -0.01390451    0.00046307   -0.00920797
     atom    2 type  1   force =     0.00638180    0.00401182   -0.00024036
     atom    3 type  1   force =    -0.01508862    0.00250529   -0.01029227
     atom    4 type  1   force =     0.00266624   -0.01057068   -0.00213930
     atom    5 type  1   force =     0.01994509    0.00359049    0.02187989

     Total force =     0.041085     Total SCF correction =     0.000252

     BFGS Geometry Optimization

     number of scf cycles    =   1
     number of bfgs steps    =   0

     energy   new            =    -329.4510869250 Ry

     new trust radius        =       0.0298232802 bohr
     new conv_thr            =       0.0000000100 Ry

ATOMIC_POSITIONS (bohr)
Au      -1.562063515   1.167336072  -0.292212966
Au       0.022852801   3.134993824   4.099255641
Au       3.218365385   2.883369292  -0.261154272
Au       4.645896236   4.749378320   5.653573704
Au       6.229557093   0.598034493   2.974257892

     Writing output data file pwscf.save
     Check: negative starting charge=   -0.006201
     NEW-OLD atomic charge density approx. for the potential
     Check: negative starting charge=   -0.006177

[...]

     energy   old            =    -329.4510869250 Ry
     energy   new            =    -329.4526046572 Ry

     CASE: energy  _new < energy  _old

[...]

     WARNING: bfgs curvature condition failed, Theta= 0.864
     new trust radius        =       0.0408357108 bohr
     new conv_thr            =       0.0000000007 Ry

[...]

     WARNING: bfgs curvature condition failed, Theta= 0.634
     uphill step: resetting bfgs history

[...]

     iteration #  1     ecut=    30.00 Ry     beta=0.70
     Davidson diagonalization with overlap
     c_bands:  1 eigenvalues not converged
     ethr =  1.00E-06,  avg # of iterations = 20.0

[...]

     WARNING: bfgs curvature condition failed, Theta= 0.547
     uphill step: resetting bfgs history

[...]

     WARNING: bfgs curvature condition failed, Theta= 0.922
     new trust radius        =       0.0077351204 bohr
     new conv_thr            =       0.0000000001 Ry

[...]

     Threshold (ethr) on eigenvalues was too large:
     Diagonalizing with lowered threshold

     Davidson diagonalization with overlap
     ethr =  6.05E-08,  avg # of iterations =  1.0

[...]

     Self-consistent Calculation

[...]

     total energy              =    -329.48684280 Ry
     Harris-Foulkes estimate   =    -329.48684278 Ry
     estimated scf accuracy    <          7.9E-10 Ry

     iteration # 10     ecut=    30.00 Ry     beta=0.70
     Davidson diagonalization with overlap
     ethr =  1.44E-12,  avg # of iterations =  2.0

     End of self-consistent calculation

          k = 0.0000 0.0000 0.0000 ( 22119 PWs)   bands (ev):

    -8.3233  -7.6190  -7.5585  -7.2699  -7.1135  -6.7090  -6.4998  -6.4284
    -6.2986  -6.0697  -5.9277  -5.6901  -5.6356  -5.6128  -5.5179  -5.4383
    -5.2893  -5.2333  -5.2200  -5.1573  -5.1044  -5.0972  -4.9758  -4.9646
    -4.8745  -4.6085  -4.4202  -3.7853  -2.5682  -2.1076  -0.5212  -0.2569
     0.3804   0.8580

     the Fermi energy is    -3.7661 ev

!    total energy              =    -329.48684280 Ry
     Harris-Foulkes estimate   =    -329.48684280 Ry
     estimated scf accuracy    <          1.7E-10 Ry

     The total energy is the sum of the following terms:

     one-electron contribution =    -602.24156852 Ry
     hartree contribution      =     322.61232429 Ry
     xc contribution           =     -51.40100488 Ry
     ewald contribution        =       1.54471737 Ry
     smearing contrib. (-TS)   =      -0.00131107 Ry

     convergence has been achieved in  10 iterations

     Forces acting on atoms (Ry/au):

     atom    1 type  1   force =     0.00667061   -0.00019122    0.00019533
     atom    2 type  1   force =    -0.00571163    0.00149891    0.00262825
     atom    3 type  1   force =    -0.00050427   -0.00150051   -0.00081496
     atom    4 type  1   force =     0.00187704   -0.00069208   -0.00194863
     atom    5 type  1   force =    -0.00233175    0.00088490   -0.00005999

     Total force =     0.010176     Total SCF correction =     0.000054

     number of scf cycles    =  50
     number of bfgs steps    =  49

     energy   old            =    -329.4866583134 Ry
     energy   new            =    -329.4868428006 Ry

     CASE: energy  _new < energy  _old

     new trust radius        =       0.0500220361 bohr
     new conv_thr            =       0.0000000002 Ry

ATOMIC_POSITIONS (bohr)
Au      -2.022911203   1.657311992  -0.677120812
Au      -0.233683877   3.713846395   3.692780251
Au       3.006219628   1.397732789   0.399249250
Au       4.321816158   4.080352583   6.013856180
Au       7.483167293   1.683868242   2.744955130

     Writing output data file pwscf.save
     Check: negative starting charge=   -0.006384
     NEW-OLD atomic charge density approx. for the potential
     Check: negative starting charge=   -0.006382

     negative rho (up, down):  5.309E-04 0.000E+00

     Writing output data file pwscf.save

     General routines

     Parallel routines

   This run was terminated on:   2:33: 5   4Aug2017

   JOB DONE.