     Program PWSCF v.6.0 (svn rev. 13079) starts on  4Aug2017 at  3:41: 7

     Current dimensions of program PWSCF are:
     Max number of different atomic species (ntypx) = 10
     Max number of k-points (npk) =  40000
     Max angular momentum in pseudopotentials (lmaxx) =  3
     Message from routine iosys:
     pot_extrapolation='second-order' not available, using 'atomic'
     Message from routine iosys:
     wfc_extrapolation='second-order' not available, using 'atomic'

     Subspace diagonalization in iterative solution of the eigenvalue problem:
     a serial algorithm will be used

     bravais-lattice index     =            1
     lattice parameter (alat)  =      20.0000  a.u.
     unit-cell volume          =    8000.0000 (a.u.)^3
     number of atoms/cell      =            5
     number of atomic types    =            1
     number of electrons       =        55.00
     number of Kohn-Sham states=           34
     kinetic-energy cutoff     =      30.0000  Ry
     charge density cutoff     =     120.0000  Ry
     convergence threshold     =      1.0E-08
     mixing beta               =       0.7000
     number of iterations used =            8  plain     mixing
     Exchange-correlation      = BLYP ( 1  3  1  3 0 0)
     nstep                     =           50

     celldm(1)=  20.000000  celldm(2)=   0.000000  celldm(3)=   0.000000
     celldm(4)=   0.000000  celldm(5)=   0.000000  celldm(6)=   0.000000

     crystal axes: (cart. coord. in units of alat)
               a(1) = (   1.000000   0.000000   0.000000 )
               a(2) = (   0.000000   1.000000   0.000000 )
               a(3) = (   0.000000   0.000000   1.000000 )

     reciprocal axes: (cart. coord. in units 2 pi/alat)
               b(1) = (  1.000000  0.000000  0.000000 )
               b(2) = (  0.000000  1.000000  0.000000 )
               b(3) = (  0.000000  0.000000  1.000000 )

     PseudoPot. # 1 for Au read from file:
     ./Au.blyp-d-hgh.UPF
     MD5 check sum: c10d8bae01f806c36a1643a1c69a8479
     Pseudo is Norm-conserving, Zval = 11.0
     Generated in analytical, separable form
     Using radial grid of 1279 points,  6 beta functions with:
                l(1) =   0
                l(2) =   0
                l(3) =   1
                l(4) =   1
                l(5) =   2
                l(6) =   2

     atomic species   valence    mass     pseudopotential
        Au            11.00    28.08600     Au( 1.00)

     No symmetry found

   Cartesian axes

     site n.     atom                  positions (alat units)
         1           Au  tau(   1) = (  -0.0806149   0.0521023  -0.0271499  )
         2           Au  tau(   2) = (  -0.0015638   0.1510889   0.1851385  )
         3           Au  tau(   3) = (   0.1592404   0.1478330  -0.0052582  )
         4           Au  tau(   4) = (   0.2204128   0.2412077   0.2754437  )
         5           Au  tau(   5) = (   0.2984322   0.0155348   0.1715184  )

     number of k points=     1  Marzari-Vanderbilt smearing, width (Ry)=  0.0250
                       cart. coord. in units 2pi/alat
        k(    1) = (   0.0000000   0.0000000   0.0000000), wk =   2.0000000

     Initial potential from superposition of free atoms
     Check: negative starting charge=   -0.006151

     starting charge   54.99940, renormalised to   55.00000

     negative rho (up, down):  6.151E-03 0.000E+00
     Starting wfc are   45 randomized atomic wfcs

     Self-consistent Calculation

     iteration #  1     ecut=    30.00 Ry     beta=0.70
     Davidson diagonalization with overlap
     ethr =  1.00E-02,  avg # of iterations =  3.0

     Threshold (ethr) on eigenvalues was too large:
     Diagonalizing with lowered threshold

     Davidson diagonalization with overlap
     ethr =  3.44E-04,  avg # of iterations =  7.0

     negative rho (up, down):  7.938E-04 0.000E+00

     total energy              =    -329.35011007 Ry
     Harris-Foulkes estimate   =    -329.49722729 Ry
     estimated scf accuracy    <       0.24859373 Ry

[...]

     End of self-consistent calculation

          k = 0.0000 0.0000 0.0000 ( 22119 PWs)   bands (ev):

    -8.4310  -7.9390  -7.5145  -7.2425  -6.9388  -6.8923  -6.7548  -6.5740
    -6.3297  -5.9884  -5.9357  -5.6967  -5.6430  -5.6180  -5.4736  -5.4328
    -5.3489  -5.2163  -5.1464  -5.0848  -5.0617  -5.0317  -4.9648  -4.8892
    -4.7444  -4.4317  -4.3835  -3.4821  -2.7504  -2.2358  -0.2709  -0.0024
     0.2324   0.5536

     the Fermi energy is    -3.4375 ev

!    total energy              =    -329.44317495 Ry
     Harris-Foulkes estimate   =    -329.44317497 Ry
     estimated scf accuracy    <          1.7E-09 Ry

     The total energy is the sum of the following terms:

     one-electron contribution =    -620.19662709 Ry
     hartree contribution      =     331.61109145 Ry
     xc contribution           =     -51.41535441 Ry
     ewald contribution        =      10.56510287 Ry
     smearing contrib. (-TS)   =      -0.00738778 Ry

     convergence has been achieved in  12 iterations

     Forces acting on atoms (Ry/au):

     atom    1 type  1   force =    -0.01290628   -0.00448630   -0.02344622
     atom    2 type  1   force =    -0.01404256    0.01422842    0.04062612
     atom    3 type  1   force =     0.02127129   -0.01417640   -0.01489808
     atom    4 type  1   force =     0.00023701   -0.00690369    0.00360028
     atom    5 type  1   force =     0.00544054    0.01133796   -0.00588210

     Total force =     0.062573     Total SCF correction =     0.000210

     BFGS Geometry Optimization

     number of scf cycles    =   1
     number of bfgs steps    =   0

     energy   new            =    -329.4431749549 Ry

     new trust radius        =       0.0452782885 bohr
     new conv_thr            =       0.0000000100 Ry

ATOMIC_POSITIONS (bohr)
Au      -1.625203277   1.037559701  -0.566444216
Au      -0.045319563   3.036006422   3.743397122
Au       3.206078293   2.942483604  -0.120061083
Au       4.408494008   4.817251314   5.512473277
Au       5.974084540   0.322033959   3.424486899

     Writing output data file pwscf.save
     Check: negative starting charge=   -0.006151
     NEW-OLD atomic charge density approx. for the potential
     Check: negative starting charge=   -0.006122

[...]

     energy   old            =    -329.4431749549 Ry
     energy   new            =    -329.4464056129 Ry

     CASE: energy  _new < energy  _old

[...]

     iteration #  1     ecut=    30.00 Ry     beta=0.70
     Davidson diagonalization with overlap
     c_bands:  1 eigenvalues not converged
     ethr =  1.00E-06,  avg # of iterations = 20.0

[...]

     WARNING: bfgs curvature condition failed, Theta= 0.973
     new trust radius        =       0.0155504589 bohr
     new conv_thr            =       0.0000000004 Ry

[...]

     WARNING: bfgs curvature condition failed, Theta= 0.971
     new trust radius        =       0.0922556878 bohr
     new conv_thr            =       0.0000000003 Ry

[...]

     CASE: energy  _new < energy  _old

[...]

     CASE: energy  _new > energy  _old

[...]

     iteration #  1     ecut=    30.00 Ry     beta=0.70
     Davidson diagonalization with overlap
     c_bands:  1 eigenvalues not converged
     ethr =  1.00E-06,  avg # of iterations = 20.0

[...]

     new trust radius        =       0.0000003092 bohr

     trust_radius < trust_radius_min

     resetting bfgs history

     new conv_thr            =       0.0000000012 Ry

[...]

     new trust radius        =       0.0015456654 bohr
     new conv_thr            =       0.0000000012 Ry

[...]

     Self-consistent Calculation

[...]

     Threshold (ethr) on eigenvalues was too large:
     Diagonalizing with lowered threshold

     Davidson diagonalization with overlap
     ethr =  8.41E-08,  avg # of iterations =  1.0

[...]

     total energy              =    -329.48681416 Ry
     Harris-Foulkes estimate   =    -329.48681423 Ry
     estimated scf accuracy    <          1.9E-09 Ry

     iteration #  9     ecut=    30.00 Ry     beta=0.70
     Davidson diagonalization with overlap
     ethr =  3.47E-12,  avg # of iterations =  3.0

     End of self-consistent calculation

          k = 0.0000 0.0000 0.0000 ( 22119 PWs)   bands (ev):

    -8.4842  -7.7738  -7.5471  -7.1924  -6.9883  -6.8537  -6.6428  -6.4668
    -6.2541  -6.1208  -5.9687  -5.8066  -5.6847  -5.6161  -5.4092  -5.3904
    -5.3127  -5.2354  -5.2012  -5.1956  -5.1612  -5.1150  -5.0149  -4.9416
    -4.9162  -4.5824  -4.5425  -3.7292  -2.4957  -2.2211  -0.5286  -0.1811
     0.3685   0.8506

     the Fermi energy is    -3.6897 ev

!    total energy              =    -329.48681418 Ry
     Harris-Foulkes estimate   =    -329.48681416 Ry
     estimated scf accuracy    <          2.1E-10 Ry

     The total energy is the sum of the following terms:

     one-electron contribution =    -605.34167710 Ry
     hartree contribution      =     324.10707937 Ry
     xc contribution           =     -51.39482089 Ry
     ewald contribution        =       3.14851888 Ry
     smearing contrib. (-TS)   =      -0.00591443 Ry

     convergence has been achieved in   9 iterations

     Forces acting on atoms (Ry/au):

     atom    1 type  1   force =    -0.00006481   -0.00455058    0.00133092
     atom    2 type  1   force =     0.00624955    0.00514560    0.01040454
     atom    3 type  1   force =    -0.00202834    0.00558097   -0.00562948
     atom    4 type  1   force =    -0.01379924   -0.00102260   -0.00786865
     atom    5 type  1   force =     0.00964284   -0.00515339    0.00176266

     Total force =     0.025283     Total SCF correction =     0.000062

     number of scf cycles    =  50
     number of bfgs steps    =  29

     energy   old            =    -329.4908210802 Ry
     energy   new            =    -329.4868141754 Ry

     CASE: energy  _new > energy  _old

     new trust radius        =       0.0000142088 bohr

     trust_radius < trust_radius_min

     resetting bfgs history

     new conv_thr            =       0.0000000012 Ry

ATOMIC_POSITIONS (bohr)
Au      -1.685605080   2.094672678  -1.190479264
Au      -0.731705391   3.666307321   3.597754360
Au       2.831355484   1.053827473   0.878776064
Au       4.080165951   3.841407865   5.869228802
Au       7.423923035   1.499119663   2.838572038

     Writing output data file pwscf.save
     Check: negative starting charge=   -0.006432
     NEW-OLD atomic charge density approx. for the potential
     Check: negative starting charge=   -0.006419

     negative rho (up, down):  3.682E-05 0.000E+00

     Writing output data file pwscf.save

     General routines

     Parallel routines

   This run was terminated on:   3:43:34   4Aug2017

   JOB DONE.