     Program PWSCF v.6.0 (svn rev. 13079) starts on  4Aug2017 at  3:29: 2

     Current dimensions of program PWSCF are:
     Max number of different atomic species (ntypx) = 10
     Max number of k-points (npk) =  40000
     Max angular momentum in pseudopotentials (lmaxx) =  3
     Message from routine iosys:
     pot_extrapolation='second-order' not available, using 'atomic'
     Message from routine iosys:
     wfc_extrapolation='second-order' not available, using 'atomic'

     Subspace diagonalization in iterative solution of the eigenvalue problem:
     a serial algorithm will be used

     bravais-lattice index     =            1
     lattice parameter (alat)  =      20.0000  a.u.
     unit-cell volume          =    8000.0000 (a.u.)^3
     number of atoms/cell      =            5
     number of atomic types    =            1
     number of electrons       =        55.00
     number of Kohn-Sham states=           34
     kinetic-energy cutoff     =      30.0000  Ry
     charge density cutoff     =     120.0000  Ry
     convergence threshold     =      1.0E-08
     mixing beta               =       0.7000
     number of iterations used =            8  plain     mixing
     Exchange-correlation      = BLYP ( 1  3  1  3 0 0)
     nstep                     =           50

     celldm(1)=  20.000000  celldm(2)=   0.000000  celldm(3)=   0.000000
     celldm(4)=   0.000000  celldm(5)=   0.000000  celldm(6)=   0.000000

     crystal axes: (cart. coord. in units of alat)
               a(1) = (   1.000000   0.000000   0.000000 )
               a(2) = (   0.000000   1.000000   0.000000 )
               a(3) = (   0.000000   0.000000   1.000000 )

     reciprocal axes: (cart. coord. in units 2 pi/alat)
               b(1) = (  1.000000  0.000000  0.000000 )
               b(2) = (  0.000000  1.000000  0.000000 )
               b(3) = (  0.000000  0.000000  1.000000 )

     PseudoPot. # 1 for Au read from file:
     ./Au.blyp-d-hgh.UPF
     MD5 check sum: c10d8bae01f806c36a1643a1c69a8479
     Pseudo is Norm-conserving, Zval = 11.0
     Generated in analytical, separable form
     Using radial grid of 1279 points,  6 beta functions with:
                l(1) =   0
                l(2) =   0
                l(3) =   1
                l(4) =   1
                l(5) =   2
                l(6) =   2

     atomic species   valence    mass     pseudopotential
        Au            11.00    28.08600     Au( 1.00)

     No symmetry found

   Cartesian axes

     site n.     atom                  positions (alat units)
         1           Au  tau(   1) = (  -0.1021503   0.0486897  -0.0194387  )
         2           Au  tau(   2) = (   0.0161385   0.1673482   0.1796580  )
         3           Au  tau(   3) = (   0.1454445   0.0376128   0.0094772  )
         4           Au  tau(   4) = (   0.2271864   0.2418005   0.3030039  )
         5           Au  tau(   5) = (   0.3246796   0.0525304   0.1381422  )

     number of k points=     1  Marzari-Vanderbilt smearing, width (Ry)=  0.0250
                       cart. coord. in units 2pi/alat
        k(    1) = (   0.0000000   0.0000000   0.0000000), wk =   2.0000000

     Initial potential from superposition of free atoms
     Check: negative starting charge=   -0.006266

     starting charge   54.99940, renormalised to   55.00000

     negative rho (up, down):  6.266E-03 0.000E+00
     Starting wfc are   45 randomized atomic wfcs

     Self-consistent Calculation

     iteration #  1     ecut=    30.00 Ry     beta=0.70
     Davidson diagonalization with overlap
     ethr =  1.00E-02,  avg # of iterations =  3.0

     Threshold (ethr) on eigenvalues was too large:
     Diagonalizing with lowered threshold

     Davidson diagonalization with overlap
     ethr =  5.72E-04,  avg # of iterations =  2.0

     negative rho (up, down):  7.827E-04 0.000E+00

     total energy              =    -329.27636617 Ry
     Harris-Foulkes estimate   =    -329.49602446 Ry
     estimated scf accuracy    <       0.36350962 Ry

[...]

     End of self-consistent calculation

          k = 0.0000 0.0000 0.0000 ( 22119 PWs)   bands (ev):

    -8.8881  -8.2443  -7.9548  -7.5661  -7.2569  -7.0163  -6.7567  -6.4966
    -6.3286  -6.1463  -5.9601  -5.8467  -5.7953  -5.5773  -5.5505  -5.4752
    -5.4229  -5.3902  -5.2367  -5.1414  -5.1182  -5.0177  -4.9727  -4.8316
    -4.6602  -4.4922  -4.1998  -3.9513  -2.4583  -1.8733  -0.5182  -0.3059
     0.3921   0.7737

     the Fermi energy is    -3.9296 ev

!    total energy              =    -329.42541715 Ry
     Harris-Foulkes estimate   =    -329.42541718 Ry
     estimated scf accuracy    <          8.2E-09 Ry

     The total energy is the sum of the following terms:

     one-electron contribution =    -615.28573457 Ry
     hartree contribution      =     328.99157753 Ry
     xc contribution           =     -51.48944831 Ry
     ewald contribution        =       8.35242719 Ry
     smearing contrib. (-TS)   =       0.00576100 Ry

     convergence has been achieved in  12 iterations

     Forces acting on atoms (Ry/au):

     atom    1 type  1   force =    -0.01694038    0.00494530   -0.00022611
     atom    2 type  1   force =    -0.00852489    0.00671513    0.00423655
     atom    3 type  1   force =    -0.14215963   -0.02338294   -0.12158763
     atom    4 type  1   force =    -0.00042086   -0.01291327   -0.00873742
     atom    5 type  1   force =     0.16804576    0.02463579    0.12631461

     Total force =     0.284661     Total SCF correction =     0.000380

     BFGS Geometry Optimization

     number of scf cycles    =   1
     number of bfgs steps    =   0

     energy   new            =    -329.4254171534 Ry

     new trust radius        =       0.2116640721 bohr
     new conv_thr            =       0.0000000100 Ry

ATOMIC_POSITIONS (bohr)
Au      -2.059947382   0.978738298  -0.389000114
Au       0.314245115   3.353679128   3.597395549
Au       2.766730370   0.728873055   0.067957370
Au       4.543308142   4.823095729   6.051340583
Au       6.661637755   1.075244790   2.889157613

     Writing output data file pwscf.save
     Check: negative starting charge=   -0.006266
     NEW-OLD atomic charge density approx. for the potential
     Check: negative starting charge=   -0.006263

[...]

     energy   old            =    -329.4254171534 Ry
     energy   new            =    -329.4702927248 Ry

     CASE: energy  _new < energy  _old

[...]

     WARNING: bfgs curvature condition failed, Theta= 0.675
     new trust radius        =       0.0456252891 bohr
     new conv_thr            =       0.0000000001 Ry

[...]

     WARNING: info= 10 for Hessian
     new trust radius        =       0.0389372565 bohr
     new conv_thr            =       0.0000000002 Ry

[...]

     CASE: energy  _new > energy  _old

[...]

     WARNING: info=  9 for Hessian
     uphill step: resetting bfgs history

[...]

     iteration #  1     ecut=    30.00 Ry     beta=0.70
     Davidson diagonalization with overlap
     c_bands:  1 eigenvalues not converged
     ethr =  1.00E-06,  avg # of iterations = 20.0

[...]

     WARNING: bfgs curvature condition failed, Theta= 0.337
     new trust radius        =       0.2116380493 bohr
     new conv_thr            =       0.0000000008 Ry

[...]

     Self-consistent Calculation

[...]

     Threshold (ethr) on eigenvalues was too large:
     Diagonalizing with lowered threshold

     Davidson diagonalization with overlap
     ethr =  1.45E-08,  avg # of iterations =  2.0

[...]

     total energy              =    -329.49370877 Ry
     Harris-Foulkes estimate   =    -329.49370880 Ry
     estimated scf accuracy    <          2.8E-10 Ry

     iteration #  9     ecut=    30.00 Ry     beta=0.70
     Davidson diagonalization with overlap
     ethr =  5.02E-13,  avg # of iterations =  2.0

     End of self-consistent calculation

          k = 0.0000 0.0000 0.0000 ( 22119 PWs)   bands (ev):

    -8.4835  -7.7630  -7.6355  -7.2258  -6.8566  -6.7996  -6.6090  -6.4613
    -6.3067  -6.0597  -5.9526  -5.7582  -5.7205  -5.6718  -5.4394  -5.3537
    -5.3098  -5.2397  -5.1930  -5.1799  -5.1604  -5.1215  -4.9894  -4.9163
    -4.8456  -4.7258  -4.4773  -3.7567  -2.3871  -2.2245  -0.5090  -0.1887
     0.3892   0.7191

     the Fermi energy is    -3.7217 ev

!    total energy              =    -329.49370876 Ry
     Harris-Foulkes estimate   =    -329.49370877 Ry
     estimated scf accuracy    <          2.5E-11 Ry

     The total energy is the sum of the following terms:

     one-electron contribution =    -602.70785128 Ry
     hartree contribution      =     322.80177474 Ry
     xc contribution           =     -51.39613275 Ry
     ewald contribution        =       1.81343679 Ry
     smearing contrib. (-TS)   =      -0.00493625 Ry

     convergence has been achieved in   9 iterations

     Forces acting on atoms (Ry/au):

     atom    1 type  1   force =    -0.00038762   -0.00148515    0.00018879
     atom    2 type  1   force =     0.00018959    0.00099102    0.00014475
     atom    3 type  1   force =     0.00056927    0.00048393   -0.00046348
     atom    4 type  1   force =     0.00041115    0.00000233   -0.00002659
     atom    5 type  1   force =    -0.00078239    0.00000787    0.00015653

     Total force =     0.002238     Total SCF correction =     0.000019

     number of scf cycles    =  50
     number of bfgs steps    =  48

     energy   old            =    -329.4936923270 Ry
     energy   new            =    -329.4937087617 Ry

     CASE: energy  _new < energy  _old

     new trust radius        =       0.0041153849 bohr
     new conv_thr            =            1.0E-10 Ry

ATOMIC_POSITIONS (bohr)
Au      -2.040574631   1.472459551  -0.324264502
Au       0.972987978   3.296715209   3.294286443
Au       2.784506829  -0.310376240  -0.444466664
Au       4.413484724   4.925379656   6.629019966
Au       6.095569099   1.575452825   3.062275757

     Writing output data file pwscf.save
     Check: negative starting charge=   -0.006129
     NEW-OLD atomic charge density approx. for the potential
     Check: negative starting charge=   -0.006128

     negative rho (up, down):  1.529E-07 0.000E+00

     Writing output data file pwscf.save

     General routines

     Parallel routines

   This run was terminated on:   3:31:15   4Aug2017

   JOB DONE.