     Program PWSCF v.6.0 (svn rev. 13079) starts on  4Aug2017 at  2:19:41

     Current dimensions of program PWSCF are:
     Max number of different atomic species (ntypx) = 10
     Max number of k-points (npk) =  40000
     Max angular momentum in pseudopotentials (lmaxx) =  3
     Message from routine iosys:
     pot_extrapolation='second-order' not available, using 'atomic'
     Message from routine iosys:
     wfc_extrapolation='second-order' not available, using 'atomic'

     Subspace diagonalization in iterative solution of the eigenvalue problem:
     a serial algorithm will be used

     bravais-lattice index     =            1
     lattice parameter (alat)  =      20.0000  a.u.
     unit-cell volume          =    8000.0000 (a.u.)^3
     number of atoms/cell      =            5
     number of atomic types    =            1
     number of electrons       =        55.00
     number of Kohn-Sham states=           34
     kinetic-energy cutoff     =      30.0000  Ry
     charge density cutoff     =     120.0000  Ry
     convergence threshold     =      1.0E-08
     mixing beta               =       0.7000
     number of iterations used =            8  plain     mixing
     Exchange-correlation      = BLYP ( 1  3  1  3 0 0)
     nstep                     =           50

     celldm(1)=  20.000000  celldm(2)=   0.000000  celldm(3)=   0.000000
     celldm(4)=   0.000000  celldm(5)=   0.000000  celldm(6)=   0.000000

     crystal axes: (cart. coord. in units of alat)
               a(1) = (   1.000000   0.000000   0.000000 )
               a(2) = (   0.000000   1.000000   0.000000 )
               a(3) = (   0.000000   0.000000   1.000000 )

     reciprocal axes: (cart. coord. in units 2 pi/alat)
               b(1) = (  1.000000  0.000000  0.000000 )
               b(2) = (  0.000000  1.000000  0.000000 )
               b(3) = (  0.000000  0.000000  1.000000 )

     PseudoPot. # 1 for Au read from file:
     ./Au.blyp-d-hgh.UPF
     MD5 check sum: c10d8bae01f806c36a1643a1c69a8479
     Pseudo is Norm-conserving, Zval = 11.0
     Generated in analytical, separable form
     Using radial grid of 1279 points,  6 beta functions with:
                l(1) =   0
                l(2) =   0
                l(3) =   1
                l(4) =   1
                l(5) =   2
                l(6) =   2

     atomic species   valence    mass     pseudopotential
        Au            11.00    28.08600     Au( 1.00)

     No symmetry found

   Cartesian axes

     site n.     atom                  positions (alat units)
         1           Au  tau(   1) = (  -0.1023759   0.0549278  -0.0246625  )
         2           Au  tau(   2) = (   0.0100120   0.1214013   0.2060328  )
         3           Au  tau(   3) = (   0.1435358   0.0686144   0.0050342  )
         4           Au  tau(   4) = (   0.2253410   0.2328444   0.2938624  )
         5           Au  tau(   5) = (   0.3410673   0.0504479   0.1452740  )

     number of k points=     1  Marzari-Vanderbilt smearing, width (Ry)=  0.0250
                       cart. coord. in units 2pi/alat
        k(    1) = (   0.0000000   0.0000000   0.0000000), wk =   2.0000000

     Initial potential from superposition of free atoms
     Check: negative starting charge=   -0.006268

     starting charge   54.99940, renormalised to   55.00000

     negative rho (up, down):  6.269E-03 0.000E+00
     Starting wfc are   45 randomized atomic wfcs

     Self-consistent Calculation

     iteration #  1     ecut=    30.00 Ry     beta=0.70
     Davidson diagonalization with overlap
     ethr =  1.00E-02,  avg # of iterations =  3.0

     Threshold (ethr) on eigenvalues was too large:
     Diagonalizing with lowered threshold

     Davidson diagonalization with overlap
     ethr =  4.17E-04,  avg # of iterations =  7.0

     negative rho (up, down):  8.297E-04 0.000E+00

     total energy              =    -329.35380743 Ry
     Harris-Foulkes estimate   =    -329.52471248 Ry
     estimated scf accuracy    <       0.28508028 Ry

[...]

     End of self-consistent calculation

          k = 0.0000 0.0000 0.0000 ( 22119 PWs)   bands (ev):

    -8.4606  -7.8395  -7.7084  -7.3016  -6.9166  -6.8629  -6.6755  -6.4533
    -6.2477  -5.9638  -5.8751  -5.7619  -5.7426  -5.5737  -5.5117  -5.4614
    -5.2226  -5.1959  -5.1668  -5.1279  -5.1070  -4.9944  -4.9504  -4.8941
    -4.7963  -4.6013  -4.2836  -3.7004  -2.4994  -2.1447  -0.3967  -0.1669
     0.3731   0.5731

     the Fermi energy is    -3.6857 ev

!    total energy              =    -329.46679143 Ry
     Harris-Foulkes estimate   =    -329.46679144 Ry
     estimated scf accuracy    <          3.1E-09 Ry

     The total energy is the sum of the following terms:

     one-electron contribution =    -610.01964415 Ry
     hartree contribution      =     326.52837227 Ry
     xc contribution           =     -51.43963255 Ry
     ewald contribution        =       5.46481403 Ry
     smearing contrib. (-TS)   =      -0.00070103 Ry

     convergence has been achieved in  12 iterations

     Forces acting on atoms (Ry/au):

     atom    1 type  1   force =    -0.01439436    0.00055468    0.00316253
     atom    2 type  1   force =    -0.01736207    0.01331855    0.01743332
     atom    3 type  1   force =     0.00448747   -0.00900561   -0.04134430
     atom    4 type  1   force =    -0.00236223   -0.01232513   -0.00282293
     atom    5 type  1   force =     0.02963119    0.00745751    0.02357138

     Total force =     0.066825     Total SCF correction =     0.000225

     BFGS Geometry Optimization

     number of scf cycles    =   1
     number of bfgs steps    =   0

     energy   new            =    -329.4667914288 Ry

     new trust radius        =       0.0425510191 bohr
     new conv_thr            =       0.0000000100 Ry

ATOMIC_POSITIONS (bohr)
Au      -2.061912356   1.099110681  -0.490088471
Au       0.182878928   2.441344546   4.138088323
Au       2.875203470   1.363282390   0.059339704
Au       4.504457770   4.644562868   5.874425066
Au       6.850977188   1.016415514   2.929051378

     Writing output data file pwscf.save
     Check: negative starting charge=   -0.006268
     NEW-OLD atomic charge density approx. for the potential
     Check: negative starting charge=   -0.006240

[...]

     energy   old            =    -329.4667914288 Ry
     energy   new            =    -329.4705727684 Ry

     CASE: energy  _new < energy  _old

[...]

     Threshold (ethr) on eigenvalues was too large:
     Diagonalizing with lowered threshold

     Davidson diagonalization with overlap
     ethr =  9.67E-08,  avg # of iterations =  1.0

[...]

     WARNING: bfgs curvature condition failed, Theta= 0.326
     new trust radius        =       0.1094618197 bohr
     new conv_thr            =       0.0000000002 Ry

[...]

     CASE: energy  _new > energy  _old

[...]

     WARNING: bfgs curvature condition failed, Theta= 0.223
     new trust radius        =       0.1672399913 bohr
     new conv_thr            =       0.0000000006 Ry

[...]

     iteration #  1     ecut=    30.00 Ry     beta=0.70
     Davidson diagonalization with overlap
     c_bands:  1 eigenvalues not converged
     ethr =  1.00E-06,  avg # of iterations = 20.0

[...]

     iteration #  1     ecut=    30.00 Ry     beta=0.70
     Davidson diagonalization with overlap
     c_bands:  1 eigenvalues not converged
     ethr =  1.00E-06,  avg # of iterations = 20.0

[...]

     Self-consistent Calculation

[...]

     total energy              =    -329.49133183 Ry
     Harris-Foulkes estimate   =    -329.49133180 Ry
     estimated scf accuracy    <          9.1E-10 Ry

     iteration # 10     ecut=    30.00 Ry     beta=0.70
     Davidson diagonalization with overlap
     ethr =  1.66E-12,  avg # of iterations =  2.0

     End of self-consistent calculation

          k = 0.0000 0.0000 0.0000 ( 22119 PWs)   bands (ev):

    -8.4943  -7.7719  -7.6478  -7.2205  -6.8484  -6.8008  -6.6079  -6.4854
    -6.2881  -6.0755  -5.9373  -5.7712  -5.7280  -5.6706  -5.4635  -5.3687
    -5.3075  -5.2536  -5.2040  -5.1840  -5.1649  -5.1210  -5.0002  -4.9432
    -4.8309  -4.7214  -4.4871  -3.7737  -2.4804  -2.2193  -0.5386  -0.1582
     0.4803   0.8580

     the Fermi energy is    -3.7398 ev

!    total energy              =    -329.49133181 Ry
     Harris-Foulkes estimate   =    -329.49133183 Ry
     estimated scf accuracy    <          8.4E-11 Ry

     The total energy is the sum of the following terms:

     one-electron contribution =    -607.34354957 Ry
     hartree contribution      =     325.10838550 Ry
     xc contribution           =     -51.39614261 Ry
     ewald contribution        =       4.14462341 Ry
     smearing contrib. (-TS)   =      -0.00464854 Ry

     convergence has been achieved in  10 iterations

     Forces acting on atoms (Ry/au):

     atom    1 type  1   force =     0.00301039    0.00046722    0.00160911
     atom    2 type  1   force =    -0.00115781    0.00055742   -0.00158437
     atom    3 type  1   force =    -0.00010282   -0.00021717   -0.00152873
     atom    4 type  1   force =    -0.00138948   -0.00022853    0.00140713
     atom    5 type  1   force =    -0.00036029   -0.00057893    0.00009686

     Total force =     0.004782     Total SCF correction =     0.000036

     number of scf cycles    =  50
     number of bfgs steps    =  48

     energy   old            =    -329.4912432682 Ry
     energy   new            =    -329.4913318126 Ry

     CASE: energy  _new < energy  _old

     new trust radius        =       0.0369200706 bohr
     new conv_thr            =            1.0E-10 Ry

ATOMIC_POSITIONS (bohr)
Au      -1.745402752   1.273438460  -0.738879826
Au      -0.753645890   3.490648547   3.848669125
Au       3.000693105   0.902514620   1.015013904
Au       4.152930607   3.778655573   5.514253773
Au       7.697029930   1.119458801   2.871759024

     Writing output data file pwscf.save
     Check: negative starting charge=   -0.006410
     NEW-OLD atomic charge density approx. for the potential
     Check: negative starting charge=   -0.006413

     negative rho (up, down):  3.346E-04 0.000E+00

     Writing output data file pwscf.save

     General routines

     Parallel routines

   This run was terminated on:   2:21:57   4Aug2017

   JOB DONE.