     Program PWSCF v.6.0 (svn rev. 13079) starts on  4Aug2017 at  5:59:28

     Current dimensions of program PWSCF are:
     Max number of different atomic species (ntypx) = 10
     Max number of k-points (npk) =  40000
     Max angular momentum in pseudopotentials (lmaxx) =  3
     Message from routine iosys:
     pot_extrapolation='second-order' not available, using 'atomic'
     Message from routine iosys:
     wfc_extrapolation='second-order' not available, using 'atomic'

     Subspace diagonalization in iterative solution of the eigenvalue problem:
     a serial algorithm will be used

     bravais-lattice index     =            1
     lattice parameter (alat)  =      20.0000  a.u.
     unit-cell volume          =    8000.0000 (a.u.)^3
     number of atoms/cell      =            5
     number of atomic types    =            1
     number of electrons       =        55.00
     number of Kohn-Sham states=           34
     kinetic-energy cutoff     =      30.0000  Ry
     charge density cutoff     =     120.0000  Ry
     convergence threshold     =      1.0E-08
     mixing beta               =       0.7000
     number of iterations used =            8  plain     mixing
     Exchange-correlation      = BLYP ( 1  3  1  3 0 0)
     nstep                     =           50

     celldm(1)=  20.000000  celldm(2)=   0.000000  celldm(3)=   0.000000
     celldm(4)=   0.000000  celldm(5)=   0.000000  celldm(6)=   0.000000

     crystal axes: (cart. coord. in units of alat)
               a(1) = (   1.000000   0.000000   0.000000 )
               a(2) = (   0.000000   1.000000   0.000000 )
               a(3) = (   0.000000   0.000000   1.000000 )

     reciprocal axes: (cart. coord. in units 2 pi/alat)
               b(1) = (  1.000000  0.000000  0.000000 )
               b(2) = (  0.000000  1.000000  0.000000 )
               b(3) = (  0.000000  0.000000  1.000000 )

     PseudoPot. # 1 for Au read from file:
     ./Au.blyp-d-hgh.UPF
     MD5 check sum: c10d8bae01f806c36a1643a1c69a8479
     Pseudo is Norm-conserving, Zval = 11.0
     Generated in analytical, separable form
     Using radial grid of 1279 points,  6 beta functions with:
                l(1) =   0
                l(2) =   0
                l(3) =   1
                l(4) =   1
                l(5) =   2
                l(6) =   2

     atomic species   valence    mass     pseudopotential
        Au            11.00    28.08600     Au( 1.00)

     No symmetry found

   Cartesian axes

     site n.     atom                  positions (alat units)
         1           Au  tau(   1) = (  -0.1167037   0.0715365  -0.0098294  )
         2           Au  tau(   2) = (   0.0172814   0.1490827   0.1862678  )
         3           Au  tau(   3) = (   0.1358330   0.1352623  -0.0397751  )
         4           Au  tau(   4) = (   0.2346467   0.2288835   0.2821091  )
         5           Au  tau(   5) = (   0.2299630  -0.0050063   0.1733979  )

     number of k points=     1  Marzari-Vanderbilt smearing, width (Ry)=  0.0250
                       cart. coord. in units 2pi/alat
        k(    1) = (   0.0000000   0.0000000   0.0000000), wk =   2.0000000

     Initial potential from superposition of free atoms
     Check: negative starting charge=   -0.006095

     starting charge   54.99940, renormalised to   55.00000

     negative rho (up, down):  6.095E-03 0.000E+00
     Starting wfc are   45 randomized atomic wfcs

     Self-consistent Calculation

     iteration #  1     ecut=    30.00 Ry     beta=0.70
     Davidson diagonalization with overlap
     ethr =  1.00E-02,  avg # of iterations =  3.0

     Threshold (ethr) on eigenvalues was too large:
     Diagonalizing with lowered threshold

     Davidson diagonalization with overlap
     ethr =  3.63E-04,  avg # of iterations =  3.0

     negative rho (up, down):  7.525E-04 0.000E+00

     total energy              =    -329.34071975 Ry
     Harris-Foulkes estimate   =    -329.49425012 Ry
     estimated scf accuracy    <       0.25738324 Ry

[...]

     End of self-consistent calculation

          k = 0.0000 0.0000 0.0000 ( 22119 PWs)   bands (ev):

    -8.5750  -7.9706  -7.7539  -7.1664  -6.9594  -6.7454  -6.6683  -6.5339
    -6.2721  -6.1199  -5.8494  -5.7815  -5.7437  -5.7004  -5.4527  -5.4206
    -5.3324  -5.2509  -5.1330  -5.1113  -5.0687  -5.0340  -4.9955  -4.8832
    -4.7455  -4.4374  -4.3590  -3.3351  -2.8705  -2.2592  -0.1243  -0.0147
     0.2849   0.4537

     the Fermi energy is    -3.2936 ev

!    total energy              =    -329.43838463 Ry
     Harris-Foulkes estimate   =    -329.43838467 Ry
     estimated scf accuracy    <          5.6E-09 Ry

     The total energy is the sum of the following terms:

     one-electron contribution =    -624.50090707 Ry
     hartree contribution      =     333.74866310 Ry
     xc contribution           =     -51.42291450 Ry
     ewald contribution        =      12.74574575 Ry
     smearing contrib. (-TS)   =      -0.00897190 Ry

     convergence has been achieved in  12 iterations

     Forces acting on atoms (Ry/au):

     atom    1 type  1   force =    -0.00912515    0.00130584   -0.01039480
     atom    2 type  1   force =    -0.02656125    0.01307054    0.02056351
     atom    3 type  1   force =     0.00828301   -0.01860101   -0.01536490
     atom    4 type  1   force =     0.00885001    0.00453918    0.01685578
     atom    5 type  1   force =     0.01855338   -0.00031456   -0.01165959

     Total force =     0.054829     Total SCF correction =     0.000318

     BFGS Geometry Optimization

     number of scf cycles    =   1
     number of bfgs steps    =   0

     energy   new            =    -329.4383846289 Ry

     new trust radius        =       0.0360443738 bohr
     new conv_thr            =       0.0000000100 Ry

ATOMIC_POSITIONS (bohr)
Au      -2.343198153   1.432034839  -0.206982798
Au       0.319066754   2.994724539   3.745919514
Au       2.724943012   2.686644995  -0.810866902
Au       4.701784007   4.582209183   5.659037775
Au       4.617813380  -0.100440555   3.456299411

     Writing output data file pwscf.save
     Check: negative starting charge=   -0.006095
     NEW-OLD atomic charge density approx. for the potential
     Check: negative starting charge=   -0.006100

[...]

     energy   old            =    -329.4383846289 Ry
     energy   new            =    -329.4411027404 Ry

     CASE: energy  _new < energy  _old

     WARNING: bfgs curvature condition failed, Theta= 0.989
     new trust radius        =       0.0396488112 bohr
     new conv_thr            =       0.0000000020 Ry

[...]

     iteration #  1     ecut=    30.00 Ry     beta=0.70
     Davidson diagonalization with overlap
     c_bands:  1 eigenvalues not converged
     ethr =  1.00E-06,  avg # of iterations = 20.0

[...]

     iteration #  1     ecut=    30.00 Ry     beta=0.70
     Davidson diagonalization with overlap
     c_bands:  1 eigenvalues not converged
     ethr =  1.00E-06,  avg # of iterations = 20.0

[...]

     WARNING: bfgs curvature condition failed, Theta= 0.601
     new trust radius        =       0.1038783393 bohr
     new conv_thr            =       0.0000000002 Ry

[...]

     CASE: energy  _new > energy  _old

[...]

     WARNING: info=  8 for Hessian
     uphill step: resetting bfgs history

[...]

     number of scf cycles    =  41
     number of bfgs steps    =  39

     energy   old            =    -329.4933659375 Ry
     energy   new            =    -329.4933848858 Ry

     CASE: energy  _new < energy  _old

     new trust radius        =       0.0051024683 bohr
     new conv_thr            =            1.0E-10 Ry

ATOMIC_POSITIONS (bohr)
Au      -2.569872844   2.311122268  -0.328294008
Au       0.608095165   3.327562294   3.446493682
Au       2.199112804   0.506149811  -1.008175283
Au       4.175730416   4.073817588   6.948317000
Au       5.607343460   1.376521040   2.785065610

     Writing output data file pwscf.save
     Check: negative starting charge=   -0.006255
     NEW-OLD atomic charge density approx. for the potential
     Check: negative starting charge=   -0.006255

     negative rho (up, down):  2.258E-07 0.000E+00

     Self-consistent Calculation

[...]

     Threshold (ethr) on eigenvalues was too large:
     Diagonalizing with lowered threshold

     Davidson diagonalization with overlap
     ethr =  7.63E-09,  avg # of iterations =  2.0

[...]

     total energy              =    -329.49339854 Ry
     Harris-Foulkes estimate   =    -329.49339854 Ry
     estimated scf accuracy    <          1.9E-10 Ry

     iteration #  9     ecut=    30.00 Ry     beta=0.70
     Davidson diagonalization with overlap
     ethr =  3.40E-13,  avg # of iterations =  2.0

     End of self-consistent calculation

          k = 0.0000 0.0000 0.0000 ( 22119 PWs)   bands (ev):

    -8.4932  -7.7714  -7.6382  -7.2301  -6.8696  -6.8072  -6.6206  -6.4645
    -6.3109  -6.0633  -5.9615  -5.7642  -5.7240  -5.6788  -5.4421  -5.3570
    -5.3106  -5.2382  -5.1991  -5.1858  -5.1667  -5.1221  -4.9923  -4.9158
    -4.8527  -4.7256  -4.4713  -3.7576  -2.3966  -2.2359  -0.5219  -0.1887
     0.4141   0.7690

     the Fermi energy is    -3.7232 ev

!    total energy              =    -329.49339853 Ry
     Harris-Foulkes estimate   =    -329.49339854 Ry
     estimated scf accuracy    <          2.7E-11 Ry

     The total energy is the sum of the following terms:

     one-electron contribution =    -605.08011338 Ry
     hartree contribution      =     323.98074990 Ry
     xc contribution           =     -51.39874268 Ry
     ewald contribution        =       3.00948604 Ry
     smearing contrib. (-TS)   =      -0.00477841 Ry

     convergence has been achieved in   9 iterations

     Forces acting on atoms (Ry/au):

     atom    1 type  1   force =    -0.00097109   -0.00059553   -0.00042753
     atom    2 type  1   force =     0.00020244    0.00004054    0.00007117
     atom    3 type  1   force =     0.00083962    0.00038261    0.00022608
     atom    4 type  1   force =     0.00013995    0.00067963   -0.00005795
     atom    5 type  1   force =    -0.00021092   -0.00050725    0.00018823

     Total force =     0.001804     Total SCF correction =     0.000023

     bfgs converged in  42 scf cycles and  40 bfgs steps
     (criteria: energy <  1.0E-04, force <  1.0E-03)

     End of BFGS Geometry Optimization

     Final energy   =    -329.4933985287 Ry
Begin final coordinates

ATOMIC_POSITIONS (bohr)
Au      -2.569872844   2.311122268  -0.328294008
Au       0.608095165   3.327562294   3.446493682
Au       2.199112804   0.506149811  -1.008175283
Au       4.175730416   4.073817588   6.948317000
Au       5.607343460   1.376521040   2.785065610
End final coordinates

     Writing output data file pwscf.save

     General routines

     Parallel routines

   This run was terminated on:   6: 1:25   4Aug2017

   JOB DONE.