     Program PWSCF v.6.0 (svn rev. 13079) starts on  4Aug2017 at  1:40:59

     Current dimensions of program PWSCF are:
     Max number of different atomic species (ntypx) = 10
     Max number of k-points (npk) =  40000
     Max angular momentum in pseudopotentials (lmaxx) =  3
     Message from routine iosys:
     pot_extrapolation='second-order' not available, using 'atomic'
     Message from routine iosys:
     wfc_extrapolation='second-order' not available, using 'atomic'

     Subspace diagonalization in iterative solution of the eigenvalue problem:
     a serial algorithm will be used

     bravais-lattice index     =            1
     lattice parameter (alat)  =      20.0000  a.u.
     unit-cell volume          =    8000.0000 (a.u.)^3
     number of atoms/cell      =            5
     number of atomic types    =            1
     number of electrons       =        55.00
     number of Kohn-Sham states=           34
     kinetic-energy cutoff     =      30.0000  Ry
     charge density cutoff     =     120.0000  Ry
     convergence threshold     =      1.0E-08
     mixing beta               =       0.7000
     number of iterations used =            8  plain     mixing
     Exchange-correlation      = BLYP ( 1  3  1  3 0 0)
     nstep                     =           50

     celldm(1)=  20.000000  celldm(2)=   0.000000  celldm(3)=   0.000000
     celldm(4)=   0.000000  celldm(5)=   0.000000  celldm(6)=   0.000000

     crystal axes: (cart. coord. in units of alat)
               a(1) = (   1.000000   0.000000   0.000000 )
               a(2) = (   0.000000   1.000000   0.000000 )
               a(3) = (   0.000000   0.000000   1.000000 )

     reciprocal axes: (cart. coord. in units 2 pi/alat)
               b(1) = (  1.000000  0.000000  0.000000 )
               b(2) = (  0.000000  1.000000  0.000000 )
               b(3) = (  0.000000  0.000000  1.000000 )

     PseudoPot. # 1 for Au read from file:
     ./Au.blyp-d-hgh.UPF
     MD5 check sum: c10d8bae01f806c36a1643a1c69a8479
     Pseudo is Norm-conserving, Zval = 11.0
     Generated in analytical, separable form
     Using radial grid of 1279 points,  6 beta functions with:
                l(1) =   0
                l(2) =   0
                l(3) =   1
                l(4) =   1
                l(5) =   2
                l(6) =   2

     atomic species   valence    mass     pseudopotential
        Au            11.00    28.08600     Au( 1.00)

     No symmetry found

   Cartesian axes

     site n.     atom                  positions (alat units)
         1           Au  tau(   1) = (  -0.0950932   0.0739669  -0.0238903  )
         2           Au  tau(   2) = (   0.0117642   0.1192835   0.2116157  )
         3           Au  tau(   3) = (   0.1458202   0.1350690  -0.0043507  )
         4           Au  tau(   4) = (   0.2281987   0.2437292   0.2911279  )
         5           Au  tau(   5) = (   0.3214306   0.0504363   0.1452902  )

     number of k points=     1  Marzari-Vanderbilt smearing, width (Ry)=  0.0250
                       cart. coord. in units 2pi/alat
        k(    1) = (   0.0000000   0.0000000   0.0000000), wk =   2.0000000

     Initial potential from superposition of free atoms
     Check: negative starting charge=   -0.006236

     starting charge   54.99940, renormalised to   55.00000

     negative rho (up, down):  6.236E-03 0.000E+00
     Starting wfc are   45 randomized atomic wfcs

     Self-consistent Calculation

     iteration #  1     ecut=    30.00 Ry     beta=0.70
     Davidson diagonalization with overlap
     ethr =  1.00E-02,  avg # of iterations =  3.0

     Threshold (ethr) on eigenvalues was too large:
     Diagonalizing with lowered threshold

     Davidson diagonalization with overlap
     ethr =  3.46E-04,  avg # of iterations =  8.0

     negative rho (up, down):  8.320E-04 0.000E+00

     total energy              =    -329.36113006 Ry
     Harris-Foulkes estimate   =    -329.50798694 Ry
     estimated scf accuracy    <       0.24904941 Ry

[...]

     End of self-consistent calculation

          k = 0.0000 0.0000 0.0000 ( 22119 PWs)   bands (ev):

    -8.3222  -7.8565  -7.5942  -7.1682  -7.0597  -6.8281  -6.7403  -6.4478
    -6.3725  -5.9258  -5.8608  -5.7867  -5.6834  -5.5805  -5.5218  -5.4856
    -5.2618  -5.2129  -5.1619  -5.1140  -5.0641  -5.0275  -5.0055  -4.9198
    -4.7891  -4.4426  -4.4072  -3.5732  -2.5078  -2.3882  -0.2861  -0.0726
     0.3261   0.4891

     the Fermi energy is    -3.5322 ev

!    total energy              =    -329.45495535 Ry
     Harris-Foulkes estimate   =    -329.45495540 Ry
     estimated scf accuracy    <          3.1E-09 Ry

     The total energy is the sum of the following terms:

     one-electron contribution =    -614.61986422 Ry
     hartree contribution      =     328.81977189 Ry
     xc contribution           =     -51.40989436 Ry
     ewald contribution        =       7.76135754 Ry
     smearing contrib. (-TS)   =      -0.00632619 Ry

     convergence has been achieved in  12 iterations

     Forces acting on atoms (Ry/au):

     atom    1 type  1   force =    -0.01552858   -0.00163387    0.00347883
     atom    2 type  1   force =    -0.00442458    0.01036308    0.00659122
     atom    3 type  1   force =     0.00376184    0.00265193   -0.02626044
     atom    4 type  1   force =    -0.00872545   -0.01388849    0.00092234
     atom    5 type  1   force =     0.02491677    0.00250735    0.01526805

     Total force =     0.047616     Total SCF correction =     0.000233

     BFGS Geometry Optimization

     number of scf cycles    =   1
     number of bfgs steps    =   0

     energy   new            =    -329.4549553454 Ry

     new trust radius        =       0.0293299440 bohr
     new conv_thr            =       0.0000000100 Ry

ATOMIC_POSITIONS (bohr)
Au      -1.917392576   1.477703130  -0.474327172
Au       0.230859417   2.396033075   4.238905216
Au       2.920165840   2.704032933  -0.113275437
Au       4.555247550   4.860695514   5.823480341
Au       6.453528769   1.011233348   2.921072053

     Writing output data file pwscf.save
     Check: negative starting charge=   -0.006236
     NEW-OLD atomic charge density approx. for the potential
     Check: negative starting charge=   -0.006216

[...]

     energy   old            =    -329.4549553454 Ry
     energy   new            =    -329.4569882689 Ry

     CASE: energy  _new < energy  _old

[...]

     iteration #  1     ecut=    30.00 Ry     beta=0.70
     Davidson diagonalization with overlap
     c_bands:  1 eigenvalues not converged
     ethr =  1.00E-06,  avg # of iterations = 20.0

[...]

     WARNING: bfgs curvature condition failed, Theta= 0.978
     new trust radius        =       0.0463677981 bohr
     new conv_thr            =            1.0E-10 Ry

[...]

     WARNING: bfgs curvature condition failed, Theta= 0.144
     new trust radius        =       0.0695516972 bohr
     new conv_thr            =            1.0E-10 Ry

[...]

     CASE: energy  _new > energy  _old

[...]

     number of scf cycles    =  41
     number of bfgs steps    =  39

     energy   old            =    -329.4849161226 Ry
     energy   new            =    -329.4849334474 Ry

     CASE: energy  _new < energy  _old

     new trust radius        =       0.0053239954 bohr
     new conv_thr            =            1.0E-10 Ry

ATOMIC_POSITIONS (bohr)
Au      -2.072830252   1.644528743  -0.629099358
Au      -0.027427557   3.346274649   3.744929589
Au       2.981006061   1.352116956   0.004512491
Au       4.193810934   3.919488823   6.523539195
Au       7.167849814   2.187288829   2.751973083

     Writing output data file pwscf.save
     Check: negative starting charge=   -0.006431
     NEW-OLD atomic charge density approx. for the potential
     Check: negative starting charge=   -0.006431

     negative rho (up, down):  2.096E-07 0.000E+00

     Self-consistent Calculation

[...]

     Threshold (ethr) on eigenvalues was too large:
     Diagonalizing with lowered threshold

     Davidson diagonalization with overlap
     ethr =  1.38E-08,  avg # of iterations =  2.0

[...]

     total energy              =    -329.48494634 Ry
     Harris-Foulkes estimate   =    -329.48494630 Ry
     estimated scf accuracy    <          2.0E-10 Ry

     iteration #  9     ecut=    30.00 Ry     beta=0.70
     Davidson diagonalization with overlap
     ethr =  3.65E-13,  avg # of iterations =  3.0

     End of self-consistent calculation

          k = 0.0000 0.0000 0.0000 ( 22119 PWs)   bands (ev):

    -8.2316  -7.5548  -7.5005  -7.3498  -7.0571  -6.6457  -6.3653  -6.2846
    -6.2271  -6.1594  -6.1200  -5.7183  -5.6373  -5.6192  -5.5318  -5.4924
    -5.2719  -5.2273  -5.2216  -5.0704  -5.0559  -5.0087  -4.9134  -4.8871
    -4.8493  -4.6769  -4.3154  -3.7908  -2.5507  -2.0871  -0.5092  -0.3129
     0.3595   0.8696

     the Fermi energy is    -3.7849 ev

!    total energy              =    -329.48494634 Ry
     Harris-Foulkes estimate   =    -329.48494634 Ry
     estimated scf accuracy    <          8.2E-11 Ry

     The total energy is the sum of the following terms:

     one-electron contribution =    -600.63579777 Ry
     hartree contribution      =     321.86559263 Ry
     xc contribution           =     -51.41418478 Ry
     ewald contribution        =       0.69849440 Ry
     smearing contrib. (-TS)   =       0.00094919 Ry

     convergence has been achieved in   9 iterations

     Forces acting on atoms (Ry/au):

     atom    1 type  1   force =    -0.00053363    0.00030683   -0.00064412
     atom    2 type  1   force =    -0.00088231   -0.00030714   -0.00056155
     atom    3 type  1   force =     0.00054278    0.00061545    0.00051103
     atom    4 type  1   force =    -0.00004134    0.00015978    0.00077019
     atom    5 type  1   force =     0.00091450   -0.00077493   -0.00007555

     Total force =     0.002231     Total SCF correction =     0.000036

     bfgs converged in  42 scf cycles and  40 bfgs steps
     (criteria: energy <  1.0E-04, force <  1.0E-03)

     End of BFGS Geometry Optimization

     Final energy   =    -329.4849463383 Ry
Begin final coordinates

ATOMIC_POSITIONS (bohr)
Au      -2.072830252   1.644528743  -0.629099358
Au      -0.027427557   3.346274649   3.744929589
Au       2.981006061   1.352116956   0.004512491
Au       4.193810934   3.919488823   6.523539195
Au       7.167849814   2.187288829   2.751973083
End final coordinates

     Writing output data file pwscf.save

     General routines

     Parallel routines

   This run was terminated on:   1:42:53   4Aug2017

   JOB DONE.