     Program PWSCF v.6.0 (svn rev. 13079) starts on  3Aug2017 at 20:30:12

     Current dimensions of program PWSCF are:
     Max number of different atomic species (ntypx) = 10
     Max number of k-points (npk) =  40000
     Max angular momentum in pseudopotentials (lmaxx) =  3
     Message from routine iosys:
     pot_extrapolation='second-order' not available, using 'atomic'
     Message from routine iosys:
     wfc_extrapolation='second-order' not available, using 'atomic'

     Subspace diagonalization in iterative solution of the eigenvalue problem:
     a serial algorithm will be used

     bravais-lattice index     =            1
     lattice parameter (alat)  =      20.0000  a.u.
     unit-cell volume          =    8000.0000 (a.u.)^3
     number of atoms/cell      =            5
     number of atomic types    =            1
     number of electrons       =        55.00
     number of Kohn-Sham states=           34
     kinetic-energy cutoff     =      30.0000  Ry
     charge density cutoff     =     120.0000  Ry
     convergence threshold     =      1.0E-08
     mixing beta               =       0.7000
     number of iterations used =            8  plain     mixing
     Exchange-correlation      = BLYP ( 1  3  1  3 0 0)
     nstep                     =           50

     celldm(1)=  20.000000  celldm(2)=   0.000000  celldm(3)=   0.000000
     celldm(4)=   0.000000  celldm(5)=   0.000000  celldm(6)=   0.000000

     crystal axes: (cart. coord. in units of alat)
               a(1) = (   1.000000   0.000000   0.000000 )
               a(2) = (   0.000000   1.000000   0.000000 )
               a(3) = (   0.000000   0.000000   1.000000 )

     reciprocal axes: (cart. coord. in units 2 pi/alat)
               b(1) = (  1.000000  0.000000  0.000000 )
               b(2) = (  0.000000  1.000000  0.000000 )
               b(3) = (  0.000000  0.000000  1.000000 )

     PseudoPot. # 1 for Au read from file:
     ./Au.blyp-d-hgh.UPF
     MD5 check sum: c10d8bae01f806c36a1643a1c69a8479
     Pseudo is Norm-conserving, Zval = 11.0
     Generated in analytical, separable form
     Using radial grid of 1279 points,  6 beta functions with:
                l(1) =   0
                l(2) =   0
                l(3) =   1
                l(4) =   1
                l(5) =   2
                l(6) =   2

     atomic species   valence    mass     pseudopotential
        Au            11.00    28.08600     Au( 1.00)

     No symmetry found

   Cartesian axes

     site n.     atom                  positions (alat units)
         1           Au  tau(   1) = (  -0.0865354   0.0652346  -0.0394520  )
         2           Au  tau(   2) = (  -0.0548437   0.0974229   0.2035431  )
         3           Au  tau(   3) = (   0.1571761   0.0803862   0.0197397  )
         4           Au  tau(   4) = (   0.1966683   0.1446497   0.2825900  )
         5           Au  tau(   5) = (   0.3831608   0.1201830   0.1225253  )

     number of k points=     1  Marzari-Vanderbilt smearing, width (Ry)=  0.0250
                       cart. coord. in units 2pi/alat
        k(    1) = (   0.0000000   0.0000000   0.0000000), wk =   2.0000000

     Initial potential from superposition of free atoms
     Check: negative starting charge=   -0.006584

     starting charge   54.99940, renormalised to   55.00000

     negative rho (up, down):  6.584E-03 0.000E+00
     Starting wfc are   45 randomized atomic wfcs

     Self-consistent Calculation

     iteration #  1     ecut=    30.00 Ry     beta=0.70
     Davidson diagonalization with overlap
     ethr =  1.00E-02,  avg # of iterations =  3.0

     Threshold (ethr) on eigenvalues was too large:
     Diagonalizing with lowered threshold

     Davidson diagonalization with overlap
     ethr =  4.23E-04,  avg # of iterations =  3.0

     negative rho (up, down):  9.232E-04 0.000E+00

     total energy              =    -329.36886799 Ry
     Harris-Foulkes estimate   =    -329.54434232 Ry
     estimated scf accuracy    <       0.28925880 Ry

[...]

     End of self-consistent calculation

          k = 0.0000 0.0000 0.0000 ( 22119 PWs)   bands (ev):

    -8.5350  -7.9167  -7.6517  -7.1973  -6.9713  -6.8797  -6.8467  -6.5656
    -6.2231  -6.1811  -6.0610  -5.7770  -5.7493  -5.6726  -5.4481  -5.3533
    -5.2996  -5.2696  -5.2186  -5.1619  -5.1529  -5.1316  -5.0087  -4.9146
    -4.9074  -4.6525  -4.4563  -3.6883  -2.5410  -2.1728  -0.5765  -0.1992
     0.4932   0.8711

     the Fermi energy is    -3.6490 ev

!    total energy              =    -329.48374215 Ry
     Harris-Foulkes estimate   =    -329.48374217 Ry
     estimated scf accuracy    <          7.6E-09 Ry

     The total energy is the sum of the following terms:

     one-electron contribution =    -613.23059039 Ry
     hartree contribution      =     328.01535683 Ry
     xc contribution           =     -51.42310496 Ry
     ewald contribution        =       7.16053500 Ry
     smearing contrib. (-TS)   =      -0.00593862 Ry

     convergence has been achieved in  11 iterations

     Forces acting on atoms (Ry/au):

     atom    1 type  1   force =    -0.00540804   -0.00477294   -0.02737996
     atom    2 type  1   force =     0.01677586    0.00525371    0.02638398
     atom    3 type  1   force =    -0.00442087    0.00259059    0.00362491
     atom    4 type  1   force =    -0.03060533   -0.00164791    0.01231983
     atom    5 type  1   force =     0.02365838   -0.00142346   -0.01494875

     Total force =     0.061013     Total SCF correction =     0.000434

     BFGS Geometry Optimization

     number of scf cycles    =   1
     number of bfgs steps    =   0

     energy   new            =    -329.4837421521 Ry

     new trust radius        =       0.0330330127 bohr
     new conv_thr            =       0.0000000100 Ry

ATOMIC_POSITIONS (bohr)
Au      -1.736117037   1.299918061  -0.816419963
Au      -1.080097141   1.953710714   4.097245976
Au       3.139101125   1.610314590   0.398418913
Au       3.902760671   2.891345092   5.664119829
Au       7.686874382   2.402237542   2.435557246

     Writing output data file pwscf.save
     Check: negative starting charge=   -0.006584
     NEW-OLD atomic charge density approx. for the potential
     Check: negative starting charge=   -0.006550

[...]

     energy   old            =    -329.4837421521 Ry
     energy   new            =    -329.4868276202 Ry

     CASE: energy  _new < energy  _old

[...]

     number of scf cycles    =  20
     number of bfgs steps    =  19

     energy   old            =    -329.4912122011 Ry
     energy   new            =    -329.4912776328 Ry

     CASE: energy  _new < energy  _old

     new trust radius        =       0.0116552433 bohr
     new conv_thr            =            1.0E-10 Ry

ATOMIC_POSITIONS (bohr)
Au      -1.745709424   1.123118772  -0.916686894
Au      -0.962140177   1.963253761   4.121774799
Au       3.049801689   1.787627395   0.497538345
Au       3.875418094   2.753722767   5.776258846
Au       7.695151818   2.529803306   2.300036904

     Writing output data file pwscf.save
     Check: negative starting charge=   -0.006532
     NEW-OLD atomic charge density approx. for the potential
     Check: negative starting charge=   -0.006534

[...]

     Self-consistent Calculation

[...]

     Threshold (ethr) on eigenvalues was too large:
     Diagonalizing with lowered threshold

     Davidson diagonalization with overlap
     ethr =  7.23E-08,  avg # of iterations =  1.0

     negative rho (up, down):  3.696E-08 0.000E+00

[...]

     total energy              =    -329.49129651 Ry
     Harris-Foulkes estimate   =    -329.49129651 Ry
     estimated scf accuracy    <          1.7E-10 Ry

     iteration # 10     ecut=    30.00 Ry     beta=0.70
     Davidson diagonalization with overlap
     ethr =  3.01E-13,  avg # of iterations =  2.0

     End of self-consistent calculation

          k = 0.0000 0.0000 0.0000 ( 22119 PWs)   bands (ev):

    -8.5354  -7.7953  -7.6734  -7.2360  -6.8566  -6.8316  -6.6119  -6.4923
    -6.3121  -6.0915  -5.9549  -5.7811  -5.7385  -5.6918  -5.4657  -5.3589
    -5.3205  -5.2505  -5.2051  -5.1823  -5.1748  -5.1249  -5.0013  -4.9249
    -4.8305  -4.7405  -4.4789  -3.7810  -2.4895  -2.2040  -0.5831  -0.2165
     0.4885   0.9184

     the Fermi energy is    -3.7487 ev

!    total energy              =    -329.49129652 Ry
     Harris-Foulkes estimate   =    -329.49129651 Ry
     estimated scf accuracy    <          1.6E-11 Ry

     The total energy is the sum of the following terms:

     one-electron contribution =    -610.52266916 Ry
     hartree contribution      =     326.68418809 Ry
     xc contribution           =     -51.40468695 Ry
     ewald contribution        =       5.75616854 Ry
     smearing contrib. (-TS)   =      -0.00429703 Ry

     convergence has been achieved in  10 iterations

     Forces acting on atoms (Ry/au):

     atom    1 type  1   force =    -0.00067834   -0.00046764    0.00030778
     atom    2 type  1   force =    -0.00048433   -0.00044691   -0.00001308
     atom    3 type  1   force =    -0.00043884   -0.00024478    0.00019751
     atom    4 type  1   force =     0.00085540    0.00073551   -0.00060388
     atom    5 type  1   force =     0.00074611    0.00042381    0.00011167

     Total force =     0.001971     Total SCF correction =     0.000014

     bfgs converged in  21 scf cycles and  20 bfgs steps
     (criteria: energy <  1.0E-04, force <  1.0E-03)

     End of BFGS Geometry Optimization

     Final energy   =    -329.4912965184 Ry
Begin final coordinates

ATOMIC_POSITIONS (bohr)
Au      -1.745709424   1.123118772  -0.916686894
Au      -0.962140177   1.963253761   4.121774799
Au       3.049801689   1.787627395   0.497538345
Au       3.875418094   2.753722767   5.776258846
Au       7.695151818   2.529803306   2.300036904
End final coordinates

     Writing output data file pwscf.save

     General routines

     Parallel routines

   This run was terminated on:  20:31: 5   3Aug2017

   JOB DONE.