     Program PWSCF v.6.0 (svn rev. 13079) starts on  3Aug2017 at 10:58:13

     Current dimensions of program PWSCF are:
     Max number of different atomic species (ntypx) = 10
     Max number of k-points (npk) =  40000
     Max angular momentum in pseudopotentials (lmaxx) =  3
     Message from routine iosys:
     pot_extrapolation='second-order' not available, using 'atomic'
     Message from routine iosys:
     wfc_extrapolation='second-order' not available, using 'atomic'

     Subspace diagonalization in iterative solution of the eigenvalue problem:
     a serial algorithm will be used

     bravais-lattice index     =            1
     lattice parameter (alat)  =      20.0000  a.u.
     unit-cell volume          =    8000.0000 (a.u.)^3
     number of atoms/cell      =            5
     number of atomic types    =            1
     number of electrons       =        55.00
     number of Kohn-Sham states=           34
     kinetic-energy cutoff     =      30.0000  Ry
     charge density cutoff     =     120.0000  Ry
     convergence threshold     =      1.0E-08
     mixing beta               =       0.7000
     number of iterations used =            8  plain     mixing
     Exchange-correlation      = BLYP ( 1  3  1  3 0 0)
     nstep                     =           50

     celldm(1)=  20.000000  celldm(2)=   0.000000  celldm(3)=   0.000000
     celldm(4)=   0.000000  celldm(5)=   0.000000  celldm(6)=   0.000000

     crystal axes: (cart. coord. in units of alat)
               a(1) = (   1.000000   0.000000   0.000000 )
               a(2) = (   0.000000   1.000000   0.000000 )
               a(3) = (   0.000000   0.000000   1.000000 )

     reciprocal axes: (cart. coord. in units 2 pi/alat)
               b(1) = (  1.000000  0.000000  0.000000 )
               b(2) = (  0.000000  1.000000  0.000000 )
               b(3) = (  0.000000  0.000000  1.000000 )

     PseudoPot. # 1 for Au read from file:
     ./Au.blyp-d-hgh.UPF
     MD5 check sum: c10d8bae01f806c36a1643a1c69a8479
     Pseudo is Norm-conserving, Zval = 11.0
     Generated in analytical, separable form
     Using radial grid of 1279 points,  6 beta functions with:
                l(1) =   0
                l(2) =   0
                l(3) =   1
                l(4) =   1
                l(5) =   2
                l(6) =   2

     atomic species   valence    mass     pseudopotential
        Au            11.00    28.08600     Au( 1.00)

     No symmetry found

   Cartesian axes

     site n.     atom                  positions (alat units)
         1           Au  tau(   1) = (  -0.0870172   0.0781603  -0.0301430  )
         2           Au  tau(   2) = (  -0.0478961   0.1941947   0.1922585  )
         3           Au  tau(   3) = (   0.1545691   0.0592329   0.0349477  )
         4           Au  tau(   4) = (   0.1978037   0.2113249   0.2600519  )
         5           Au  tau(   5) = (   0.3811952   0.0764124   0.1474276  )

     number of k points=     1  Marzari-Vanderbilt smearing, width (Ry)=  0.0250
                       cart. coord. in units 2pi/alat
        k(    1) = (   0.0000000   0.0000000   0.0000000), wk =   2.0000000

     Initial potential from superposition of free atoms
     Check: negative starting charge=   -0.006361

     starting charge   54.99940, renormalised to   55.00000

     negative rho (up, down):  6.361E-03 0.000E+00
     Starting wfc are   45 randomized atomic wfcs

     Self-consistent Calculation

     iteration #  1     ecut=    30.00 Ry     beta=0.70
     Davidson diagonalization with overlap
     ethr =  1.00E-02,  avg # of iterations =  3.0

     Threshold (ethr) on eigenvalues was too large:
     Diagonalizing with lowered threshold

     Davidson diagonalization with overlap
     ethr =  4.07E-04,  avg # of iterations =  5.0

     negative rho (up, down):  8.534E-04 0.000E+00

     total energy              =    -329.37552447 Ry
     Harris-Foulkes estimate   =    -329.54544168 Ry
     estimated scf accuracy    <       0.28132374 Ry

[...]

     End of self-consistent calculation

          k = 0.0000 0.0000 0.0000 ( 22119 PWs)   bands (ev):

    -8.3893  -7.7196  -7.6321  -7.1729  -6.9972  -6.7562  -6.7245  -6.4508
    -6.2710  -6.0610  -5.9858  -5.7472  -5.7060  -5.6615  -5.4144  -5.3394
    -5.3122  -5.2259  -5.1839  -5.1691  -5.1556  -5.1409  -4.9854  -4.8970
    -4.8525  -4.6621  -4.3956  -3.7974  -2.5238  -2.1221  -0.5269  -0.2001
     0.5485   0.8077

     the Fermi energy is    -3.7822 ev

!    total energy              =    -329.48817763 Ry
     Harris-Foulkes estimate   =    -329.48817767 Ry
     estimated scf accuracy    <          3.0E-09 Ry

     The total energy is the sum of the following terms:

     one-electron contribution =    -607.81943253 Ry
     hartree contribution      =     325.38325672 Ry
     xc contribution           =     -51.41296930 Ry
     ewald contribution        =       4.36159861 Ry
     smearing contrib. (-TS)   =      -0.00063113 Ry

     convergence has been achieved in  13 iterations

     Forces acting on atoms (Ry/au):

     atom    1 type  1   force =    -0.00337625   -0.00187028   -0.00706863
     atom    2 type  1   force =     0.00001133    0.00054937   -0.00147816
     atom    3 type  1   force =    -0.00063762    0.00683542    0.01217279
     atom    4 type  1   force =     0.00009244   -0.00189241    0.00046550
     atom    5 type  1   force =     0.00391010   -0.00362210   -0.00409150

     Total force =     0.017653     Total SCF correction =     0.000242

     BFGS Geometry Optimization

     number of scf cycles    =   1
     number of bfgs steps    =   0

     energy   new            =    -329.4881776305 Ry

     new trust radius        =       0.0139752051 bohr
     new conv_thr            =       0.0000000100 Ry

ATOMIC_POSITIONS (bohr)
Au      -1.743720246   1.561335720  -0.609927634
Au      -0.957909667   3.884443375   3.843691841
Au       3.090745376   1.191493417   0.711125792
Au       3.956166440   4.224605588   5.201503499
Au       7.627815096   1.524625900   2.944461502

     Writing output data file pwscf.save
     Check: negative starting charge=   -0.006361
     NEW-OLD atomic charge density approx. for the potential
     Check: negative starting charge=   -0.006366

[...]

     energy   old            =    -329.4881776305 Ry
     energy   new            =    -329.4884783271 Ry

     CASE: energy  _new < energy  _old

     WARNING: bfgs curvature condition failed, Theta= 0.861
     new trust radius        =       0.0153727256 bohr
     new conv_thr            =       0.0000000003 Ry

[...]

     WARNING: bfgs curvature condition failed, Theta= 0.763
     new trust radius        =       0.1191027783 bohr
     new conv_thr            =            1.0E-10 Ry

[...]

     CASE: energy  _new > energy  _old

[...]

     Self-consistent Calculation

[...]

     Threshold (ethr) on eigenvalues was too large:
     Diagonalizing with lowered threshold

     Davidson diagonalization with overlap
     ethr =  1.80E-08,  avg # of iterations =  2.0

[...]

     total energy              =    -329.49317990 Ry
     Harris-Foulkes estimate   =    -329.49317989 Ry
     estimated scf accuracy    <          2.1E-10 Ry

     iteration #  9     ecut=    30.00 Ry     beta=0.70
     Davidson diagonalization with overlap
     ethr =  3.73E-13,  avg # of iterations =  3.0

     End of self-consistent calculation

          k = 0.0000 0.0000 0.0000 ( 22119 PWs)   bands (ev):

    -8.5021  -7.7599  -7.6386  -7.2042  -6.8479  -6.8097  -6.5882  -6.4621
    -6.2930  -6.0757  -5.9421  -5.7669  -5.7263  -5.6816  -5.4432  -5.3622
    -5.3131  -5.2446  -5.2008  -5.1769  -5.1647  -5.1222  -4.9910  -4.9270
    -4.8394  -4.7338  -4.4802  -3.7828  -2.4286  -2.2177  -0.5249  -0.1652
     0.4672   0.7894

     the Fermi energy is    -3.7506 ev

!    total energy              =    -329.49317988 Ry
     Harris-Foulkes estimate   =    -329.49317990 Ry
     estimated scf accuracy    <          4.2E-11 Ry

     The total energy is the sum of the following terms:

     one-electron contribution =    -605.58775690 Ry
     hartree contribution      =     324.23739704 Ry
     xc contribution           =     -51.39616384 Ry
     ewald contribution        =       3.25760169 Ry
     smearing contrib. (-TS)   =      -0.00425786 Ry

     convergence has been achieved in   9 iterations

     Forces acting on atoms (Ry/au):

     atom    1 type  1   force =    -0.00021199    0.00096877    0.00212577
     atom    2 type  1   force =     0.00129301   -0.00068110   -0.00314512
     atom    3 type  1   force =    -0.00272785    0.00033485    0.00077608
     atom    4 type  1   force =     0.00053390   -0.00097958   -0.00135026
     atom    5 type  1   force =     0.00111293    0.00035706    0.00159353

     Total force =     0.005715     Total SCF correction =     0.000021

     number of scf cycles    =  50
     number of bfgs steps    =  48

     energy   old            =    -329.4931643752 Ry
     energy   new            =    -329.4931798784 Ry

     CASE: energy  _new < energy  _old

     new trust radius        =       0.0070981526 bohr
     new conv_thr            =            1.0E-10 Ry

ATOMIC_POSITIONS (bohr)
Au      -1.588173435   1.720750168  -1.094501121
Au      -0.831096101   4.163437597   3.423305965
Au       3.045798080   1.338145562   0.896804448
Au       3.872574847   4.033903930   5.587555152
Au       7.473993607   1.130266743   3.277690556

     Writing output data file pwscf.save
     Check: negative starting charge=   -0.006300
     NEW-OLD atomic charge density approx. for the potential
     Check: negative starting charge=   -0.006298

     negative rho (up, down):  2.210E-06 0.000E+00

     Writing output data file pwscf.save

     General routines

     Parallel routines

   This run was terminated on:  11: 0:36   3Aug2017

   JOB DONE.