     Program PWSCF v.6.0 (svn rev. 13079) starts on  4Aug2017 at  5: 1:37

     Current dimensions of program PWSCF are:
     Max number of different atomic species (ntypx) = 10
     Max number of k-points (npk) =  40000
     Max angular momentum in pseudopotentials (lmaxx) =  3
     Message from routine iosys:
     pot_extrapolation='second-order' not available, using 'atomic'
     Message from routine iosys:
     wfc_extrapolation='second-order' not available, using 'atomic'

     Subspace diagonalization in iterative solution of the eigenvalue problem:
     a serial algorithm will be used

     bravais-lattice index     =            1
     lattice parameter (alat)  =      20.0000  a.u.
     unit-cell volume          =    8000.0000 (a.u.)^3
     number of atoms/cell      =            5
     number of atomic types    =            1
     number of electrons       =        55.00
     number of Kohn-Sham states=           34
     kinetic-energy cutoff     =      30.0000  Ry
     charge density cutoff     =     120.0000  Ry
     convergence threshold     =      1.0E-08
     mixing beta               =       0.7000
     number of iterations used =            8  plain     mixing
     Exchange-correlation      = BLYP ( 1  3  1  3 0 0)
     nstep                     =           50

     celldm(1)=  20.000000  celldm(2)=   0.000000  celldm(3)=   0.000000
     celldm(4)=   0.000000  celldm(5)=   0.000000  celldm(6)=   0.000000

     crystal axes: (cart. coord. in units of alat)
               a(1) = (   1.000000   0.000000   0.000000 )
               a(2) = (   0.000000   1.000000   0.000000 )
               a(3) = (   0.000000   0.000000   1.000000 )

     reciprocal axes: (cart. coord. in units 2 pi/alat)
               b(1) = (  1.000000  0.000000  0.000000 )
               b(2) = (  0.000000  1.000000  0.000000 )
               b(3) = (  0.000000  0.000000  1.000000 )

     PseudoPot. # 1 for Au read from file:
     ./Au.blyp-d-hgh.UPF
     MD5 check sum: c10d8bae01f806c36a1643a1c69a8479
     Pseudo is Norm-conserving, Zval = 11.0
     Generated in analytical, separable form
     Using radial grid of 1279 points,  6 beta functions with:
                l(1) =   0
                l(2) =   0
                l(3) =   1
                l(4) =   1
                l(5) =   2
                l(6) =   2

     atomic species   valence    mass     pseudopotential
        Au            11.00    28.08600     Au( 1.00)

     No symmetry found

   Cartesian axes

     site n.     atom                  positions (alat units)
         1           Au  tau(   1) = (  -0.0554291   0.0302387  -0.0108052  )
         2           Au  tau(   2) = (  -0.0160079   0.1413822   0.2053315  )
         3           Au  tau(   3) = (   0.1610583   0.1545491  -0.0160657  )
         4           Au  tau(   4) = (   0.2249426   0.2375687   0.2668639  )
         5           Au  tau(   5) = (   0.2896672   0.0223801   0.1632070  )

     number of k points=     1  Marzari-Vanderbilt smearing, width (Ry)=  0.0250
                       cart. coord. in units 2pi/alat
        k(    1) = (   0.0000000   0.0000000   0.0000000), wk =   2.0000000

     Initial potential from superposition of free atoms
     Check: negative starting charge=   -0.006052

     starting charge   54.99940, renormalised to   55.00000

     negative rho (up, down):  6.052E-03 0.000E+00
     Starting wfc are   45 randomized atomic wfcs

     Self-consistent Calculation

     iteration #  1     ecut=    30.00 Ry     beta=0.70
     Davidson diagonalization with overlap
     ethr =  1.00E-02,  avg # of iterations =  3.0

     Threshold (ethr) on eigenvalues was too large:
     Diagonalizing with lowered threshold

     Davidson diagonalization with overlap
     ethr =  3.75E-04,  avg # of iterations =  6.0

     negative rho (up, down):  7.668E-04 0.000E+00

     total energy              =    -329.32471306 Ry
     Harris-Foulkes estimate   =    -329.48672411 Ry
     estimated scf accuracy    <       0.26939283 Ry

[...]

     End of self-consistent calculation

          k = 0.0000 0.0000 0.0000 ( 22119 PWs)   bands (ev):

    -8.1563  -7.7116  -7.2938  -7.2046  -6.9614  -6.8844  -6.6739  -6.5890
    -6.4031  -6.1239  -6.0732  -5.7440  -5.6284  -5.5372  -5.3721  -5.3500
    -5.3251  -5.1491  -5.1037  -5.0496  -5.0385  -5.0248  -4.9160  -4.8483
    -4.6252  -4.5454  -4.1428  -3.5188  -2.8090  -2.1835  -0.2903  -0.1121
     0.2433   0.5057

     the Fermi energy is    -3.4956 ev

!    total energy              =    -329.43250532 Ry
     Harris-Foulkes estimate   =    -329.43250537 Ry
     estimated scf accuracy    <          4.5E-09 Ry

     The total energy is the sum of the following terms:

     one-electron contribution =    -621.59544073 Ry
     hartree contribution      =     332.39683345 Ry
     xc contribution           =     -51.41535193 Ry
     ewald contribution        =      11.18402418 Ry
     smearing contrib. (-TS)   =      -0.00257029 Ry

     convergence has been achieved in  12 iterations

     Forces acting on atoms (Ry/au):

     atom    1 type  1   force =    -0.02642619   -0.01440779   -0.02623326
     atom    2 type  1   force =     0.01480878    0.01581443    0.01713294
     atom    3 type  1   force =     0.00878531   -0.00181898    0.00819389
     atom    4 type  1   force =    -0.01454915    0.00976302    0.00626411
     atom    5 type  1   force =     0.01738126   -0.00935068   -0.00535769

     Total force =     0.057177     Total SCF correction =     0.000285

     BFGS Geometry Optimization

     number of scf cycles    =   1
     number of bfgs steps    =   0

     energy   new            =    -329.4325053234 Ry

     new trust radius        =       0.0399263312 bohr
     new conv_thr            =       0.0000000100 Ry

ATOMIC_POSITIONS (bohr)
Au      -1.135008194   0.590366208  -0.242337256
Au      -0.305349221   2.843457434   4.123762937
Au       3.229950305   3.089163023  -0.313119108
Au       4.484301847   4.761137019   5.343541113
Au       5.810725263   0.438251316   3.258781314

     Writing output data file pwscf.save
     Check: negative starting charge=   -0.006052
     NEW-OLD atomic charge density approx. for the potential
     Check: negative starting charge=   -0.006008

[...]

     energy   old            =    -329.4325053234 Ry
     energy   new            =    -329.4352913559 Ry

     CASE: energy  _new < energy  _old

[...]

     iteration #  1     ecut=    30.00 Ry     beta=0.70
     Davidson diagonalization with overlap
     c_bands:  1 eigenvalues not converged
     ethr =  1.00E-06,  avg # of iterations = 20.0

[...]

     WARNING: bfgs curvature condition failed, Theta= 0.431
     new trust radius        =       0.0444597653 bohr
     new conv_thr            =            1.0E-10 Ry

[...]

     WARNING: bfgs curvature condition failed, Theta= 0.820
     new trust radius        =       0.0666896480 bohr
     new conv_thr            =            1.0E-10 Ry

[...]

     CASE: energy  _new > energy  _old

[...]

     Self-consistent Calculation

[...]

     Threshold (ethr) on eigenvalues was too large:
     Diagonalizing with lowered threshold

     Davidson diagonalization with overlap
     ethr =  6.09E-08,  avg # of iterations =  1.0

[...]

     total energy              =    -329.49226146 Ry
     Harris-Foulkes estimate   =    -329.49226147 Ry
     estimated scf accuracy    <          2.0E-10 Ry

     iteration # 10     ecut=    30.00 Ry     beta=0.70
     Davidson diagonalization with overlap
     ethr =  3.64E-13,  avg # of iterations =  2.0

     End of self-consistent calculation

          k = 0.0000 0.0000 0.0000 ( 22119 PWs)   bands (ev):

    -8.4843  -7.7607  -7.6337  -7.2204  -6.8580  -6.8032  -6.6180  -6.4633
    -6.3055  -6.0614  -5.9600  -5.7676  -5.7273  -5.6809  -5.4455  -5.3693
    -5.3151  -5.2378  -5.1955  -5.1803  -5.1743  -5.1275  -4.9989  -4.9135
    -4.8417  -4.7383  -4.4676  -3.7831  -2.4805  -2.1954  -0.5429  -0.1681
     0.4923   0.8549

     the Fermi energy is    -3.7525 ev

!    total energy              =    -329.49226146 Ry
     Harris-Foulkes estimate   =    -329.49226146 Ry
     estimated scf accuracy    <          1.2E-11 Ry

     The total energy is the sum of the following terms:

     one-electron contribution =    -607.09000976 Ry
     hartree contribution      =     324.98627575 Ry
     xc contribution           =     -51.39866543 Ry
     ewald contribution        =       4.01407173 Ry
     smearing contrib. (-TS)   =      -0.00393374 Ry

     convergence has been achieved in  10 iterations

     Forces acting on atoms (Ry/au):

     atom    1 type  1   force =    -0.00025834   -0.00011252   -0.00120352
     atom    2 type  1   force =     0.00125623   -0.00028561   -0.00111582
     atom    3 type  1   force =    -0.00065597    0.00091318    0.00159160
     atom    4 type  1   force =     0.00077519   -0.00055416   -0.00098196
     atom    5 type  1   force =    -0.00111710    0.00003912    0.00170970

     Total force =     0.003778     Total SCF correction =     0.000016

     number of scf cycles    =  50
     number of bfgs steps    =  48

     energy   old            =    -329.4922201274 Ry
     energy   new            =    -329.4922614611 Ry

     CASE: energy  _new < energy  _old

     new trust radius        =       0.0174927778 bohr
     new conv_thr            =            1.0E-10 Ry

ATOMIC_POSITIONS (bohr)
Au      -1.702658366   1.338233370  -0.823642547
Au      -0.851613254   3.835506606   3.599484223
Au       3.056667745   1.217404256   0.865592690
Au       3.946996182   3.929351380   5.541705189
Au       7.635227693   1.401879389   2.987489444

     Writing output data file pwscf.save
     Check: negative starting charge=   -0.006364
     NEW-OLD atomic charge density approx. for the potential
     Check: negative starting charge=   -0.006361

     negative rho (up, down):  2.755E-05 0.000E+00

     Writing output data file pwscf.save

     General routines

     Parallel routines

   This run was terminated on:   5: 3:53   4Aug2017

   JOB DONE.