     Program PWSCF v.6.0 (svn rev. 13079) starts on  3Aug2017 at 21: 7:16

     Current dimensions of program PWSCF are:
     Max number of different atomic species (ntypx) = 10
     Max number of k-points (npk) =  40000
     Max angular momentum in pseudopotentials (lmaxx) =  3
     Message from routine iosys:
     pot_extrapolation='second-order' not available, using 'atomic'
     Message from routine iosys:
     wfc_extrapolation='second-order' not available, using 'atomic'

     Subspace diagonalization in iterative solution of the eigenvalue problem:
     a serial algorithm will be used

     bravais-lattice index     =            1
     lattice parameter (alat)  =      20.0000  a.u.
     unit-cell volume          =    8000.0000 (a.u.)^3
     number of atoms/cell      =            5
     number of atomic types    =            1
     number of electrons       =        55.00
     number of Kohn-Sham states=           34
     kinetic-energy cutoff     =      30.0000  Ry
     charge density cutoff     =     120.0000  Ry
     convergence threshold     =      1.0E-08
     mixing beta               =       0.7000
     number of iterations used =            8  plain     mixing
     Exchange-correlation      = BLYP ( 1  3  1  3 0 0)
     nstep                     =           50

     celldm(1)=  20.000000  celldm(2)=   0.000000  celldm(3)=   0.000000
     celldm(4)=   0.000000  celldm(5)=   0.000000  celldm(6)=   0.000000

     crystal axes: (cart. coord. in units of alat)
               a(1) = (   1.000000   0.000000   0.000000 )
               a(2) = (   0.000000   1.000000   0.000000 )
               a(3) = (   0.000000   0.000000   1.000000 )

     reciprocal axes: (cart. coord. in units 2 pi/alat)
               b(1) = (  1.000000  0.000000  0.000000 )
               b(2) = (  0.000000  1.000000  0.000000 )
               b(3) = (  0.000000  0.000000  1.000000 )

     PseudoPot. # 1 for Au read from file:
     ./Au.blyp-d-hgh.UPF
     MD5 check sum: c10d8bae01f806c36a1643a1c69a8479
     Pseudo is Norm-conserving, Zval = 11.0
     Generated in analytical, separable form
     Using radial grid of 1279 points,  6 beta functions with:
                l(1) =   0
                l(2) =   0
                l(3) =   1
                l(4) =   1
                l(5) =   2
                l(6) =   2

     atomic species   valence    mass     pseudopotential
        Au            11.00    28.08600     Au( 1.00)

     No symmetry found

   Cartesian axes

     site n.     atom                  positions (alat units)
         1           Au  tau(   1) = (  -0.0918393   0.0737176  -0.0458012  )
         2           Au  tau(   2) = (  -0.0305957   0.1761009   0.1745484  )
         3           Au  tau(   3) = (   0.1529461   0.0288785   0.0215415  )
         4           Au  tau(   4) = (   0.1994556   0.2040219   0.2875965  )
         5           Au  tau(   5) = (   0.3812593   0.0654785   0.1690975  )

     number of k points=     1  Marzari-Vanderbilt smearing, width (Ry)=  0.0250
                       cart. coord. in units 2pi/alat
        k(    1) = (   0.0000000   0.0000000   0.0000000), wk =   2.0000000

     Initial potential from superposition of free atoms
     Check: negative starting charge=   -0.006146

     starting charge   54.99940, renormalised to   55.00000

     negative rho (up, down):  6.146E-03 0.000E+00
     Starting wfc are   45 randomized atomic wfcs

     Self-consistent Calculation

     iteration #  1     ecut=    30.00 Ry     beta=0.70
     Davidson diagonalization with overlap
     ethr =  1.00E-02,  avg # of iterations =  4.0

     Threshold (ethr) on eigenvalues was too large:
     Diagonalizing with lowered threshold

     Davidson diagonalization with overlap
     ethr =  4.15E-04,  avg # of iterations =  3.0

     negative rho (up, down):  8.200E-04 0.000E+00

     total energy              =    -329.35646965 Ry
     Harris-Foulkes estimate   =    -329.52555615 Ry
     estimated scf accuracy    <       0.27917331 Ry

[...]

     End of self-consistent calculation

          k = 0.0000 0.0000 0.0000 ( 22119 PWs)   bands (ev):

    -8.0094  -7.4725  -7.3429  -7.0144  -6.8357  -6.5972  -6.5362  -6.2955
    -6.1392  -6.0267  -5.8262  -5.6895  -5.6109  -5.5539  -5.4169  -5.3830
    -5.2967  -5.2208  -5.1961  -5.1527  -5.1327  -5.1122  -5.0715  -4.9678
    -4.8361  -4.6396  -4.4369  -3.8305  -2.7116  -2.1775  -0.4567  -0.2281
     0.3715   0.7396

     the Fermi energy is    -3.8177 ev

!    total energy              =    -329.47336415 Ry
     Harris-Foulkes estimate   =    -329.47336422 Ry
     estimated scf accuracy    <          5.1E-09 Ry

     The total energy is the sum of the following terms:

     one-electron contribution =    -586.20645695 Ry
     hartree contribution      =     314.69437881 Ry
     xc contribution           =     -51.35559391 Ry
     ewald contribution        =      -6.60573200 Ry
     smearing contrib. (-TS)   =       0.00003990 Ry

     convergence has been achieved in  12 iterations

     Forces acting on atoms (Ry/au):

     atom    1 type  1   force =     0.00527163   -0.01043713   -0.00963344
     atom    2 type  1   force =     0.01710656   -0.00131905    0.00238539
     atom    3 type  1   force =     0.00587372    0.01755112    0.02650073
     atom    4 type  1   force =     0.00394572   -0.00581029   -0.00571973
     atom    5 type  1   force =    -0.03219763    0.00001535   -0.01353296

     Total force =     0.053631     Total SCF correction =     0.000243

     BFGS Geometry Optimization

     number of scf cycles    =   1
     number of bfgs steps    =   0

     energy   new            =    -329.4733641525 Ry

     new trust radius        =       0.0349260464 bohr
     new conv_thr            =       0.0000000100 Ry

ATOMIC_POSITIONS (bohr)
Au      -1.831514369   1.463915866  -0.925657438
Au      -0.594806437   3.520699955   3.493353388
Au       3.064795718   0.595122122   0.457331734
Au       3.993057722   4.074627712   5.746210271
Au       7.592989367   1.309586346   3.368417044

     Writing output data file pwscf.save
     Check: negative starting charge=   -0.006146
     NEW-OLD atomic charge density approx. for the potential
     Check: negative starting charge=   -0.006151

[...]

     energy   old            =    -329.4733641525 Ry
     energy   new            =    -329.4761157132 Ry

     CASE: energy  _new < energy  _old

     WARNING: bfgs curvature condition failed, Theta= 0.877
     new trust radius        =       0.0384186511 bohr
     new conv_thr            =       0.0000000028 Ry

[...]

     CASE: energy  _new > energy  _old

[...]

     number of scf cycles    =  39
     number of bfgs steps    =  37

     energy   old            =    -329.4932771745 Ry
     energy   new            =    -329.4933170203 Ry

     CASE: energy  _new < energy  _old

     new trust radius        =       0.0105424263 bohr
     new conv_thr            =            1.0E-10 Ry

ATOMIC_POSITIONS (bohr)
Au      -1.455535161   1.439370833  -1.154650079
Au      -0.790901182   3.956787427   3.307102260
Au       3.123348001   1.061385297   0.926347292
Au       3.840297564   3.689357063   5.622135110
Au       7.507312778   0.817051380   3.438720416

     Writing output data file pwscf.save
     Check: negative starting charge=   -0.006323
     NEW-OLD atomic charge density approx. for the potential
     Check: negative starting charge=   -0.006314

     negative rho (up, down):  1.136E-05 0.000E+00

     Self-consistent Calculation

[...]

     Threshold (ethr) on eigenvalues was too large:
     Diagonalizing with lowered threshold

     Davidson diagonalization with overlap
     ethr =  2.91E-08,  avg # of iterations =  2.0

[...]

     total energy              =    -329.49334173 Ry
     Harris-Foulkes estimate   =    -329.49334172 Ry
     estimated scf accuracy    <          1.1E-10 Ry

     iteration # 10     ecut=    30.00 Ry     beta=0.70
     Davidson diagonalization with overlap
     ethr =  1.99E-13,  avg # of iterations =  2.0

     End of self-consistent calculation

          k = 0.0000 0.0000 0.0000 ( 22119 PWs)   bands (ev):

    -8.5134  -7.7904  -7.6546  -7.2406  -6.8464  -6.8174  -6.6209  -6.4809
    -6.3095  -6.0777  -5.9567  -5.7681  -5.7294  -5.6830  -5.4620  -5.3582
    -5.3091  -5.2468  -5.1959  -5.1788  -5.1709  -5.1175  -5.0007  -4.9207
    -4.8317  -4.7347  -4.4783  -3.7659  -2.4341  -2.2000  -0.5261  -0.1541
     0.4551   0.7845

     the Fermi energy is    -3.7318 ev

!    total energy              =    -329.49334173 Ry
     Harris-Foulkes estimate   =    -329.49334173 Ry
     estimated scf accuracy    <          9.5E-12 Ry

     The total energy is the sum of the following terms:

     one-electron contribution =    -606.53658453 Ry
     hartree contribution      =     324.70079152 Ry
     xc contribution           =     -51.39970150 Ry
     ewald contribution        =       3.74687272 Ry
     smearing contrib. (-TS)   =      -0.00471995 Ry

     convergence has been achieved in  10 iterations

     Forces acting on atoms (Ry/au):

     atom    1 type  1   force =    -0.00020930   -0.00001803    0.00003139
     atom    2 type  1   force =     0.00045720    0.00083617    0.00083806
     atom    3 type  1   force =    -0.00016205   -0.00030804   -0.00013858
     atom    4 type  1   force =    -0.00003528   -0.00014575   -0.00003492
     atom    5 type  1   force =    -0.00005057   -0.00036436   -0.00069595

     Total force =     0.001562     Total SCF correction =     0.000016

     bfgs converged in  40 scf cycles and  38 bfgs steps
     (criteria: energy <  1.0E-04, force <  1.0E-03)

     End of BFGS Geometry Optimization

     Final energy   =    -329.4933417337 Ry
Begin final coordinates

ATOMIC_POSITIONS (bohr)
Au      -1.455535161   1.439370833  -1.154650079
Au      -0.790901182   3.956787427   3.307102260
Au       3.123348001   1.061385297   0.926347292
Au       3.840297564   3.689357063   5.622135110
Au       7.507312778   0.817051380   3.438720416
End final coordinates

     Writing output data file pwscf.save

     General routines

     Parallel routines

   This run was terminated on:  21: 9: 1   3Aug2017

   JOB DONE.