     Program PWSCF v.6.0 (svn rev. 13079) starts on  4Aug2017 at  5:39:53

     Current dimensions of program PWSCF are:
     Max number of different atomic species (ntypx) = 10
     Max number of k-points (npk) =  40000
     Max angular momentum in pseudopotentials (lmaxx) =  3
     Message from routine iosys:
     pot_extrapolation='second-order' not available, using 'atomic'
     Message from routine iosys:
     wfc_extrapolation='second-order' not available, using 'atomic'

     Subspace diagonalization in iterative solution of the eigenvalue problem:
     a serial algorithm will be used

     bravais-lattice index     =            1
     lattice parameter (alat)  =      20.0000  a.u.
     unit-cell volume          =    8000.0000 (a.u.)^3
     number of atoms/cell      =            5
     number of atomic types    =            1
     number of electrons       =        55.00
     number of Kohn-Sham states=           34
     kinetic-energy cutoff     =      30.0000  Ry
     charge density cutoff     =     120.0000  Ry
     convergence threshold     =      1.0E-08
     mixing beta               =       0.7000
     number of iterations used =            8  plain     mixing
     Exchange-correlation      = BLYP ( 1  3  1  3 0 0)
     nstep                     =           50

     celldm(1)=  20.000000  celldm(2)=   0.000000  celldm(3)=   0.000000
     celldm(4)=   0.000000  celldm(5)=   0.000000  celldm(6)=   0.000000

     crystal axes: (cart. coord. in units of alat)
               a(1) = (   1.000000   0.000000   0.000000 )
               a(2) = (   0.000000   1.000000   0.000000 )
               a(3) = (   0.000000   0.000000   1.000000 )

     reciprocal axes: (cart. coord. in units 2 pi/alat)
               b(1) = (  1.000000  0.000000  0.000000 )
               b(2) = (  0.000000  1.000000  0.000000 )
               b(3) = (  0.000000  0.000000  1.000000 )

     PseudoPot. # 1 for Au read from file:
     ./Au.blyp-d-hgh.UPF
     MD5 check sum: c10d8bae01f806c36a1643a1c69a8479
     Pseudo is Norm-conserving, Zval = 11.0
     Generated in analytical, separable form
     Using radial grid of 1279 points,  6 beta functions with:
                l(1) =   0
                l(2) =   0
                l(3) =   1
                l(4) =   1
                l(5) =   2
                l(6) =   2

     atomic species   valence    mass     pseudopotential
        Au            11.00    28.08600     Au( 1.00)

     No symmetry found

   Cartesian axes

     site n.     atom                  positions (alat units)
         1           Au  tau(   1) = (  -0.0432679   0.0233572   0.0133644  )
         2           Au  tau(   2) = (  -0.0027377   0.1780384   0.1503956  )
         3           Au  tau(   3) = (   0.1506271   0.1659415  -0.0191633  )
         4           Au  tau(   4) = (   0.2189672   0.2311901   0.2509583  )
         5           Au  tau(   5) = (   0.2630361   0.0011883   0.1722735  )

     number of k points=     1  Marzari-Vanderbilt smearing, width (Ry)=  0.0250
                       cart. coord. in units 2pi/alat
        k(    1) = (   0.0000000   0.0000000   0.0000000), wk =   2.0000000

     Initial potential from superposition of free atoms
     Check: negative starting charge=   -0.006441

     starting charge   54.99940, renormalised to   55.00000

     negative rho (up, down):  6.442E-03 0.000E+00
     Starting wfc are   45 randomized atomic wfcs

     Self-consistent Calculation

     iteration #  1     ecut=    30.00 Ry     beta=0.70
     Davidson diagonalization with overlap
     ethr =  1.00E-02,  avg # of iterations =  3.0

     Threshold (ethr) on eigenvalues was too large:
     Diagonalizing with lowered threshold

     Davidson diagonalization with overlap
     ethr =  4.56E-04,  avg # of iterations =  7.0

     negative rho (up, down):  7.537E-04 0.000E+00

     total energy              =    -329.13349109 Ry
     Harris-Foulkes estimate   =    -329.31797082 Ry
     estimated scf accuracy    <       0.30313907 Ry

[...]

     End of self-consistent calculation

          k = 0.0000 0.0000 0.0000 ( 22119 PWs)   bands (ev):

    -9.8877  -8.9443  -8.5944  -8.1596  -7.6974  -7.3194  -7.2171  -6.8198
    -6.6836  -6.4957  -6.1592  -6.0032  -5.9160  -5.7159  -5.5786  -5.4447
    -5.2535  -5.1248  -5.0492  -5.0249  -4.9772  -4.9379  -4.9185  -4.7645
    -4.4786  -4.1381  -4.0689  -3.2792  -2.9925  -1.7869  -0.3453   0.1354
     0.2740   0.4866

     the Fermi energy is    -3.2699 ev

!    total energy              =    -329.25255178 Ry
     Harris-Foulkes estimate   =    -329.25255177 Ry
     estimated scf accuracy    <          5.5E-09 Ry

     The total energy is the sum of the following terms:

     one-electron contribution =    -672.10218934 Ry
     hartree contribution      =     357.25366058 Ry
     xc contribution           =     -51.65985923 Ry
     ewald contribution        =      37.26391659 Ry
     smearing contrib. (-TS)   =      -0.00808038 Ry

     convergence has been achieved in  13 iterations

     Forces acting on atoms (Ry/au):

     atom    1 type  1   force =    -0.13057787   -0.30657805   -0.24455531
     atom    2 type  1   force =    -0.05607428    0.27721938    0.34199051
     atom    3 type  1   force =     0.14782888    0.01275395   -0.11323527
     atom    4 type  1   force =     0.02588875    0.03475951    0.02886001
     atom    5 type  1   force =     0.01293451   -0.01815479   -0.01305993

     Total force =     0.637195     Total SCF correction =     0.000343

     BFGS Geometry Optimization

     number of scf cycles    =   1
     number of bfgs steps    =   0

     energy   new            =    -329.2525517758 Ry

     new trust radius        =       0.4437932145 bohr
     new conv_thr            =       0.0000000100 Ry

ATOMIC_POSITIONS (bohr)
Au      -0.995935868   0.160565950   0.022733685
Au      -0.110827281   3.837987382   3.349902506
Au       3.160371883   3.331583948  -0.496501275
Au       4.405232752   4.658562509   5.048027009
Au       5.273656514   0.005610211   3.432411074

     Writing output data file pwscf.save
     Check: negative starting charge=   -0.006441
     NEW-OLD atomic charge density approx. for the potential
     Check: negative starting charge=   -0.006055

[...]

     energy   old            =    -329.2525517758 Ry
     energy   new            =    -329.4117667148 Ry

     CASE: energy  _new < energy  _old

[...]

     WARNING: bfgs curvature condition failed, Theta= 0.755
     new trust radius        =       0.4686218076 bohr
     new conv_thr            =       0.0000000042 Ry

[...]

     CASE: energy  _new < energy  _old

[...]

     CASE: energy  _new > energy  _old

[...]

     Threshold (ethr) on eigenvalues was too large:
     Diagonalizing with lowered threshold

     Davidson diagonalization with overlap
     ethr =  7.26E-08,  avg # of iterations =  1.0

[...]

     new trust radius        =       0.0000000968 bohr

     trust_radius < trust_radius_min

     resetting bfgs history

     new conv_thr            =       0.0000000020 Ry

[...]

     new trust radius        =       0.0029775316 bohr
     new conv_thr            =       0.0000000020 Ry

[...]

     Self-consistent Calculation

[...]

     total energy              =    -329.46583233 Ry
     Harris-Foulkes estimate   =    -329.46583233 Ry
     estimated scf accuracy    <          3.1E-09 Ry

     iteration #  9     ecut=    30.00 Ry     beta=0.70
     Davidson diagonalization with overlap
     ethr =  5.58E-12,  avg # of iterations =  3.0

     End of self-consistent calculation

          k = 0.0000 0.0000 0.0000 ( 22119 PWs)   bands (ev):

    -8.2123  -7.7128  -7.5509  -7.1808  -6.9427  -6.7028  -6.6858  -6.3440
    -6.2498  -6.1460  -5.8849  -5.6960  -5.6138  -5.5115  -5.4709  -5.4276
    -5.3004  -5.2209  -5.1701  -5.1488  -5.1267  -5.0417  -5.0102  -4.9616
    -4.7692  -4.6011  -4.5125  -3.6069  -2.7007  -2.2544  -0.4327   0.0013
     0.1915   0.5149

     the Fermi energy is    -3.5617 ev

!    total energy              =    -329.46583235 Ry
     Harris-Foulkes estimate   =    -329.46583234 Ry
     estimated scf accuracy    <          5.3E-10 Ry

     The total energy is the sum of the following terms:

     one-electron contribution =    -600.93146982 Ry
     hartree contribution      =     321.97955676 Ry
     xc contribution           =     -51.37065610 Ry
     ewald contribution        =       0.86423670 Ry
     smearing contrib. (-TS)   =      -0.00749989 Ry

     convergence has been achieved in   9 iterations

     Forces acting on atoms (Ry/au):

     atom    1 type  1   force =     0.01864424    0.00668102    0.00227398
     atom    2 type  1   force =    -0.00485084    0.00763465    0.00569339
     atom    3 type  1   force =    -0.00189778   -0.02257826    0.00153210
     atom    4 type  1   force =    -0.00757809    0.00226680    0.00562207
     atom    5 type  1   force =    -0.00431753    0.00599579   -0.01512155

     Total force =     0.037481     Total SCF correction =     0.000098

     number of scf cycles    =  50
     number of bfgs steps    =  21

     energy   old            =    -329.4733534330 Ry
     energy   new            =    -329.4658323504 Ry

     CASE: energy  _new > energy  _old

     new trust radius        =       0.0000365587 bohr

     trust_radius < trust_radius_min

     resetting bfgs history

     new conv_thr            =       0.0000000020 Ry

ATOMIC_POSITIONS (bohr)
Au      -1.967723171   1.143742489  -0.904400391
Au      -0.607946231   3.697870340   3.328604615
Au       3.175235507   2.118344097   0.245913006
Au       4.328954435   4.662132446   4.948723423
Au       6.803977461   0.372220628   3.737732347

     Writing output data file pwscf.save
     Check: negative starting charge=   -0.006081
     NEW-OLD atomic charge density approx. for the potential
     Check: negative starting charge=   -0.006085

     negative rho (up, down):  9.888E-05 0.000E+00

     Writing output data file pwscf.save

     General routines

     Parallel routines

   This run was terminated on:   5:42: 8   4Aug2017

   JOB DONE.