     Program PWSCF v.6.0 (svn rev. 13079) starts on  4Aug2017 at  6:49:19

     Current dimensions of program PWSCF are:
     Max number of different atomic species (ntypx) = 10
     Max number of k-points (npk) =  40000
     Max angular momentum in pseudopotentials (lmaxx) =  3
     Message from routine iosys:
     pot_extrapolation='second-order' not available, using 'atomic'
     Message from routine iosys:
     wfc_extrapolation='second-order' not available, using 'atomic'

     Subspace diagonalization in iterative solution of the eigenvalue problem:
     a serial algorithm will be used

     bravais-lattice index     =            1
     lattice parameter (alat)  =      20.0000  a.u.
     unit-cell volume          =    8000.0000 (a.u.)^3
     number of atoms/cell      =            5
     number of atomic types    =            1
     number of electrons       =        55.00
     number of Kohn-Sham states=           34
     kinetic-energy cutoff     =      30.0000  Ry
     charge density cutoff     =     120.0000  Ry
     convergence threshold     =      1.0E-08
     mixing beta               =       0.7000
     number of iterations used =            8  plain     mixing
     Exchange-correlation      = BLYP ( 1  3  1  3 0 0)
     nstep                     =           50

     celldm(1)=  20.000000  celldm(2)=   0.000000  celldm(3)=   0.000000
     celldm(4)=   0.000000  celldm(5)=   0.000000  celldm(6)=   0.000000

     crystal axes: (cart. coord. in units of alat)
               a(1) = (   1.000000   0.000000   0.000000 )
               a(2) = (   0.000000   1.000000   0.000000 )
               a(3) = (   0.000000   0.000000   1.000000 )

     reciprocal axes: (cart. coord. in units 2 pi/alat)
               b(1) = (  1.000000  0.000000  0.000000 )
               b(2) = (  0.000000  1.000000  0.000000 )
               b(3) = (  0.000000  0.000000  1.000000 )

     PseudoPot. # 1 for Au read from file:
     ./Au.blyp-d-hgh.UPF
     MD5 check sum: c10d8bae01f806c36a1643a1c69a8479
     Pseudo is Norm-conserving, Zval = 11.0
     Generated in analytical, separable form
     Using radial grid of 1279 points,  6 beta functions with:
                l(1) =   0
                l(2) =   0
                l(3) =   1
                l(4) =   1
                l(5) =   2
                l(6) =   2

     atomic species   valence    mass     pseudopotential
        Au            11.00    28.08600     Au( 1.00)

     No symmetry found

   Cartesian axes

     site n.     atom                  positions (alat units)
         1           Au  tau(   1) = (   0.1313286  -0.0033697   0.0221892  )
         2           Au  tau(   2) = (  -0.0156626   0.2703244   0.2521211  )
         3           Au  tau(   3) = (   0.1494763   0.1843656  -0.0510904  )
         4           Au  tau(   4) = (   0.2358369   0.2424293   0.2518757  )
         5           Au  tau(   5) = (   0.2326843  -0.0089426   0.1890011  )

     number of k points=     1  Marzari-Vanderbilt smearing, width (Ry)=  0.0250
                       cart. coord. in units 2pi/alat
        k(    1) = (   0.0000000   0.0000000   0.0000000), wk =   2.0000000

     Initial potential from superposition of free atoms
     Check: negative starting charge=   -0.006152

     starting charge   54.99940, renormalised to   55.00000

     negative rho (up, down):  6.152E-03 0.000E+00
     Starting wfc are   45 randomized atomic wfcs

     Self-consistent Calculation

     iteration #  1     ecut=    30.00 Ry     beta=0.70
     Davidson diagonalization with overlap
     ethr =  1.00E-02,  avg # of iterations =  2.0

     negative rho (up, down):  4.960E-04 0.000E+00

     total energy              =    -328.61278681 Ry
     Harris-Foulkes estimate   =    -329.09221563 Ry
     estimated scf accuracy    <       0.69090002 Ry

[...]

     End of self-consistent calculation

          k = 0.0000 0.0000 0.0000 ( 22119 PWs)   bands (ev):

   -10.8873 -10.5410  -9.6170  -9.2368  -8.5681  -7.3857  -7.0153  -6.8319
    -6.6286  -6.4310  -6.1134  -5.9633  -5.7742  -5.7216  -5.5040  -5.3647
    -5.2412  -5.1382  -4.9098  -4.8780  -4.8450  -4.7904  -4.7286  -4.6323
    -4.6099  -4.3912  -4.0734  -3.5158  -3.0596  -1.5371  -0.5047  -0.2839
    -0.0365   0.4828

     the Fermi energy is    -3.5109 ev

!    total energy              =    -328.97497746 Ry
     Harris-Foulkes estimate   =    -328.97497746 Ry
     estimated scf accuracy    <          4.3E-09 Ry

     The total energy is the sum of the following terms:

     one-electron contribution =    -632.54227996 Ry
     hartree contribution      =     337.15014071 Ry
     xc contribution           =     -51.68970291 Ry
     ewald contribution        =      18.10709119 Ry
     smearing contrib. (-TS)   =      -0.00022649 Ry

     convergence has been achieved in  15 iterations

     Forces acting on atoms (Ry/au):

     atom    1 type  1   force =    -0.40463547   -0.43847827   -0.42919854
     atom    2 type  1   force =     0.02120282    0.00445765   -0.00432774
     atom    3 type  1   force =     0.03223777    0.46594435   -0.18534808
     atom    4 type  1   force =    -0.02049972    0.01425468    0.00539802
     atom    5 type  1   force =     0.37169460   -0.04617841    0.61347634

     Total force =     1.144764     Total SCF correction =     0.000293

     BFGS Geometry Optimization

     number of scf cycles    =   1
     number of bfgs steps    =   0

     energy   new            =    -328.9749774562 Ry

     new trust radius        =       0.5000000000 bohr
     new conv_thr            =       0.0000000100 Ry

ATOMIC_POSITIONS (bohr)
Au       2.351305540  -0.365684215   0.151806649
Au      -0.298827038   5.409521473   5.039476901
Au       3.011456874   4.004286977  -1.147898527
Au       4.702792348   4.858283249   5.041186194
Au       4.906543276  -0.210266484   4.197360783

     Writing output data file pwscf.save
     Check: negative starting charge=   -0.006152
     NEW-OLD atomic charge density approx. for the potential
     Check: negative starting charge=   -0.005793

[...]

     energy   old            =    -328.9749774562 Ry
     energy   new            =    -329.3706619244 Ry

     CASE: energy  _new < energy  _old

[...]

     WARNING: bfgs curvature condition failed, Theta= 0.717
     new trust radius        =       0.1342448713 bohr
     new conv_thr            =       0.0000000016 Ry

[...]

     WARNING: info= 13 for Hessian
     new trust radius        =       0.1644279067 bohr
     new conv_thr            =       0.0000000015 Ry

[...]

     CASE: energy  _new > energy  _old

[...]

     WARNING: info= 13 for Hessian
     uphill step: resetting bfgs history

[...]

     WARNING: bfgs curvature condition failed, Theta= 0.841
     new trust radius        =       0.2076792778 bohr
     new conv_thr            =       0.0000000022 Ry

[...]

     Self-consistent Calculation

[...]

     total energy              =    -329.49382125 Ry
     Harris-Foulkes estimate   =    -329.49382126 Ry
     estimated scf accuracy    <          2.9E-10 Ry

     iteration # 10     ecut=    30.00 Ry     beta=0.70
     Davidson diagonalization with overlap
     ethr =  5.31E-13,  avg # of iterations =  2.0

     End of self-consistent calculation

          k = 0.0000 0.0000 0.0000 ( 22119 PWs)   bands (ev):

    -8.4828  -7.7513  -7.6456  -7.2082  -6.8730  -6.7939  -6.6015  -6.4626
    -6.2856  -6.0528  -5.9437  -5.7582  -5.7188  -5.6758  -5.4232  -5.3755
    -5.3119  -5.2359  -5.2008  -5.1684  -5.1587  -5.1154  -4.9782  -4.9265
    -4.8287  -4.7208  -4.4699  -3.7759  -2.3833  -2.1961  -0.4824  -0.1728
     0.4299   0.6493

     the Fermi energy is    -3.7443 ev

!    total energy              =    -329.49382127 Ry
     Harris-Foulkes estimate   =    -329.49382125 Ry
     estimated scf accuracy    <          3.1E-11 Ry

     The total energy is the sum of the following terms:

     one-electron contribution =    -602.64715739 Ry
     hartree contribution      =     322.77673703 Ry
     xc contribution           =     -51.39602341 Ry
     ewald contribution        =       1.77675805 Ry
     smearing contrib. (-TS)   =      -0.00413557 Ry

     convergence has been achieved in  10 iterations

     Forces acting on atoms (Ry/au):

     atom    1 type  1   force =     0.00142920   -0.00110354    0.00116165
     atom    2 type  1   force =     0.00057765   -0.00053142    0.00125341
     atom    3 type  1   force =     0.00039418    0.00181883    0.00168041
     atom    4 type  1   force =    -0.00249616    0.00090164   -0.00049591
     atom    5 type  1   force =     0.00009513   -0.00108550   -0.00359956

     Total force =     0.005875     Total SCF correction =     0.000028

     number of scf cycles    =  50
     number of bfgs steps    =  48

     energy   old            =    -329.4937412402 Ry
     energy   new            =    -329.4938212723 Ry

     CASE: energy  _new < energy  _old

     new trust radius        =       0.0286311905 bohr
     new conv_thr            =            1.0E-10 Ry

ATOMIC_POSITIONS (bohr)
Au       3.027837430  -1.182453233  -0.971864756
Au       0.347389364   7.254345284   3.869662242
Au       1.447716405   3.030804281   1.318511270
Au       4.404646791   4.588066472   5.617627511
Au       5.445681010   0.005378196   3.447995733

     Writing output data file pwscf.save
     Check: negative starting charge=   -0.005995
     NEW-OLD atomic charge density approx. for the potential
     Check: negative starting charge=   -0.005996

     negative rho (up, down):  1.579E-04 0.000E+00

     Writing output data file pwscf.save

     General routines

     Parallel routines

   This run was terminated on:   6:52: 6   4Aug2017

   JOB DONE.