     Program PWSCF v.6.0 (svn rev. 13079) starts on  4Aug2017 at  5:42: 8

     Current dimensions of program PWSCF are:
     Max number of different atomic species (ntypx) = 10
     Max number of k-points (npk) =  40000
     Max angular momentum in pseudopotentials (lmaxx) =  3
     Message from routine iosys:
     pot_extrapolation='second-order' not available, using 'atomic'
     Message from routine iosys:
     wfc_extrapolation='second-order' not available, using 'atomic'

     Subspace diagonalization in iterative solution of the eigenvalue problem:
     a serial algorithm will be used

     bravais-lattice index     =            1
     lattice parameter (alat)  =      20.0000  a.u.
     unit-cell volume          =    8000.0000 (a.u.)^3
     number of atoms/cell      =            5
     number of atomic types    =            1
     number of electrons       =        55.00
     number of Kohn-Sham states=           34
     kinetic-energy cutoff     =      30.0000  Ry
     charge density cutoff     =     120.0000  Ry
     convergence threshold     =      1.0E-08
     mixing beta               =       0.7000
     number of iterations used =            8  plain     mixing
     Exchange-correlation      = BLYP ( 1  3  1  3 0 0)
     nstep                     =           50

     celldm(1)=  20.000000  celldm(2)=   0.000000  celldm(3)=   0.000000
     celldm(4)=   0.000000  celldm(5)=   0.000000  celldm(6)=   0.000000

     crystal axes: (cart. coord. in units of alat)
               a(1) = (   1.000000   0.000000   0.000000 )
               a(2) = (   0.000000   1.000000   0.000000 )
               a(3) = (   0.000000   0.000000   1.000000 )

     reciprocal axes: (cart. coord. in units 2 pi/alat)
               b(1) = (  1.000000  0.000000  0.000000 )
               b(2) = (  0.000000  1.000000  0.000000 )
               b(3) = (  0.000000  0.000000  1.000000 )

     PseudoPot. # 1 for Au read from file:
     ./Au.blyp-d-hgh.UPF
     MD5 check sum: c10d8bae01f806c36a1643a1c69a8479
     Pseudo is Norm-conserving, Zval = 11.0
     Generated in analytical, separable form
     Using radial grid of 1279 points,  6 beta functions with:
                l(1) =   0
                l(2) =   0
                l(3) =   1
                l(4) =   1
                l(5) =   2
                l(6) =   2

     atomic species   valence    mass     pseudopotential
        Au            11.00    28.08600     Au( 1.00)

     No symmetry found

   Cartesian axes

     site n.     atom                  positions (alat units)
         1           Au  tau(   1) = (  -0.1196486   0.0232012   0.0297884  )
         2           Au  tau(   2) = (   0.0227960   0.1485830   0.1883043  )
         3           Au  tau(   3) = (   0.1379603   0.0827767  -0.0484191  )
         4           Au  tau(   4) = (   0.2296780   0.2470974   0.2821899  )
         5           Au  tau(   5) = (   0.2519817   0.0040289   0.1589306  )

     number of k points=     1  Marzari-Vanderbilt smearing, width (Ry)=  0.0250
                       cart. coord. in units 2pi/alat
        k(    1) = (   0.0000000   0.0000000   0.0000000), wk =   2.0000000

     Initial potential from superposition of free atoms
     Check: negative starting charge=   -0.006009

     starting charge   54.99940, renormalised to   55.00000

     negative rho (up, down):  6.009E-03 0.000E+00
     Starting wfc are   45 randomized atomic wfcs

     Self-consistent Calculation

     iteration #  1     ecut=    30.00 Ry     beta=0.70
     Davidson diagonalization with overlap
     ethr =  1.00E-02,  avg # of iterations =  3.0

     Threshold (ethr) on eigenvalues was too large:
     Diagonalizing with lowered threshold

     Davidson diagonalization with overlap
     ethr =  3.59E-04,  avg # of iterations =  7.0

     negative rho (up, down):  8.184E-04 0.000E+00

     total energy              =    -329.35608254 Ry
     Harris-Foulkes estimate   =    -329.50547235 Ry
     estimated scf accuracy    <       0.25403795 Ry

[...]

     End of self-consistent calculation

          k = 0.0000 0.0000 0.0000 ( 22119 PWs)   bands (ev):

    -8.4025  -7.8138  -7.6157  -7.1924  -6.9132  -6.7422  -6.5227  -6.4321
    -6.1461  -6.0415  -5.8174  -5.7479  -5.6629  -5.6040  -5.5072  -5.4593
    -5.4139  -5.2392  -5.1176  -5.0904  -5.0275  -4.9857  -4.9597  -4.8054
    -4.7940  -4.5112  -4.3419  -3.6758  -2.7474  -2.1511  -0.1963  -0.0964
     0.2899   0.5174

     the Fermi energy is    -3.6512 ev

!    total energy              =    -329.45063409 Ry
     Harris-Foulkes estimate   =    -329.45063407 Ry
     estimated scf accuracy    <          6.2E-09 Ry

     The total energy is the sum of the following terms:

     one-electron contribution =    -613.20667604 Ry
     hartree contribution      =     328.15655875 Ry
     xc contribution           =     -51.40379393 Ry
     ewald contribution        =       7.00575101 Ry
     smearing contrib. (-TS)   =      -0.00247388 Ry

     convergence has been achieved in  12 iterations

     Forces acting on atoms (Ry/au):

     atom    1 type  1   force =    -0.00187286    0.00029746   -0.01769522
     atom    2 type  1   force =    -0.00330698    0.00310197    0.00310799
     atom    3 type  1   force =    -0.02506903   -0.00979736   -0.01246194
     atom    4 type  1   force =     0.01488748   -0.00577900    0.00886366
     atom    5 type  1   force =     0.01536139    0.01217692    0.01818551

     Total force =     0.047699     Total SCF correction =     0.000337

     BFGS Geometry Optimization

     number of scf cycles    =   1
     number of bfgs steps    =   0

     energy   new            =    -329.4506340910 Ry

     new trust radius        =       0.0296604907 bohr
     new conv_thr            =       0.0000000100 Ry

ATOMIC_POSITIONS (bohr)
Au      -2.394844857   0.464322463   0.578072777
Au       0.452612023   2.974761974   3.769192989
Au       2.734136966   1.645737639  -0.980843941
Au       4.608447480   4.936169001   5.652662662
Au       5.054995388   0.092755923   3.196797513

     Writing output data file pwscf.save
     Check: negative starting charge=   -0.006009
     NEW-OLD atomic charge density approx. for the potential
     Check: negative starting charge=   -0.006016

[...]

     energy   old            =    -329.4506340910 Ry
     energy   new            =    -329.4527671734 Ry

     CASE: energy  _new < energy  _old

     WARNING: bfgs curvature condition failed, Theta= 0.914
     new trust radius        =       0.0326265397 bohr
     new conv_thr            =       0.0000000021 Ry

[...]

     iteration #  1     ecut=    30.00 Ry     beta=0.70
     Davidson diagonalization with overlap
     c_bands:  1 eigenvalues not converged
     ethr =  1.00E-06,  avg # of iterations = 20.0

[...]

     WARNING: bfgs curvature condition failed, Theta= 0.995
     new trust radius        =       0.0638035259 bohr
     new conv_thr            =       0.0000000003 Ry

[...]

     number of scf cycles    =  29
     number of bfgs steps    =  28

     energy   old            =    -329.4928934443 Ry
     energy   new            =    -329.4929086284 Ry

     CASE: energy  _new < energy  _old

     new trust radius        =       0.0112064987 bohr
     new conv_thr            =            1.0E-10 Ry

ATOMIC_POSITIONS (bohr)
Au      -2.681459570   1.364513290   0.130679355
Au       0.701056035   3.042879203   3.500740531
Au       2.202160520  -0.062815393  -0.741114760
Au       4.439447292   4.399796668   6.631206147
Au       5.794142722   1.369373231   2.694370727

     Writing output data file pwscf.save
     Check: negative starting charge=   -0.006229
     NEW-OLD atomic charge density approx. for the potential
     Check: negative starting charge=   -0.006227

     negative rho (up, down):  1.049E-05 0.000E+00

     Self-consistent Calculation

[...]

     Threshold (ethr) on eigenvalues was too large:
     Diagonalizing with lowered threshold

     Davidson diagonalization with overlap
     ethr =  5.87E-08,  avg # of iterations =  1.0

[...]

     total energy              =    -329.49291673 Ry
     Harris-Foulkes estimate   =    -329.49291672 Ry
     estimated scf accuracy    <          1.3E-10 Ry

     iteration # 10     ecut=    30.00 Ry     beta=0.70
     Davidson diagonalization with overlap
     ethr =  2.32E-13,  avg # of iterations =  2.0

     End of self-consistent calculation

          k = 0.0000 0.0000 0.0000 ( 22119 PWs)   bands (ev):

    -8.4799  -7.7664  -7.6411  -7.2345  -6.8531  -6.7951  -6.6177  -6.4657
    -6.3136  -6.0586  -5.9525  -5.7591  -5.7195  -5.6749  -5.4522  -5.3578
    -5.3078  -5.2432  -5.1938  -5.1785  -5.1693  -5.1199  -4.9985  -4.9169
    -4.8402  -4.7347  -4.4743  -3.7511  -2.4075  -2.2390  -0.5240  -0.1892
     0.4007   0.7534

     the Fermi energy is    -3.7156 ev

!    total energy              =    -329.49291673 Ry
     Harris-Foulkes estimate   =    -329.49291673 Ry
     estimated scf accuracy    <          9.5E-12 Ry

     The total energy is the sum of the following terms:

     one-electron contribution =    -604.09761159 Ry
     hartree contribution      =     323.49265363 Ry
     xc contribution           =     -51.39662288 Ry
     ewald contribution        =       2.51371306 Ry
     smearing contrib. (-TS)   =      -0.00504895 Ry

     convergence has been achieved in  10 iterations

     Forces acting on atoms (Ry/au):

     atom    1 type  1   force =     0.00044644    0.00096732   -0.00021628
     atom    2 type  1   force =    -0.00039134   -0.00024743    0.00069516
     atom    3 type  1   force =     0.00016388    0.00014834   -0.00031248
     atom    4 type  1   force =    -0.00048595   -0.00025927   -0.00006360
     atom    5 type  1   force =     0.00026697   -0.00060896   -0.00010280

     Total force =     0.001669     Total SCF correction =     0.000013

     bfgs converged in  30 scf cycles and  29 bfgs steps
     (criteria: energy <  1.0E-04, force <  1.0E-03)

     End of BFGS Geometry Optimization

     Final energy   =    -329.4929167313 Ry
Begin final coordinates

ATOMIC_POSITIONS (bohr)
Au      -2.681459570   1.364513290   0.130679355
Au       0.701056035   3.042879203   3.500740531
Au       2.202160520  -0.062815393  -0.741114760
Au       4.439447292   4.399796668   6.631206147
Au       5.794142722   1.369373231   2.694370727
End final coordinates

     Writing output data file pwscf.save

     General routines

     Parallel routines

   This run was terminated on:   5:43:30   4Aug2017

   JOB DONE.