     Program PWSCF v.6.0 (svn rev. 13079) starts on  4Aug2017 at  6:20:17

     Current dimensions of program PWSCF are:
     Max number of different atomic species (ntypx) = 10
     Max number of k-points (npk) =  40000
     Max angular momentum in pseudopotentials (lmaxx) =  3
     Message from routine iosys:
     pot_extrapolation='second-order' not available, using 'atomic'
     Message from routine iosys:
     wfc_extrapolation='second-order' not available, using 'atomic'

     Subspace diagonalization in iterative solution of the eigenvalue problem:
     a serial algorithm will be used

     bravais-lattice index     =            1
     lattice parameter (alat)  =      20.0000  a.u.
     unit-cell volume          =    8000.0000 (a.u.)^3
     number of atoms/cell      =            5
     number of atomic types    =            1
     number of electrons       =        55.00
     number of Kohn-Sham states=           34
     kinetic-energy cutoff     =      30.0000  Ry
     charge density cutoff     =     120.0000  Ry
     convergence threshold     =      1.0E-08
     mixing beta               =       0.7000
     number of iterations used =            8  plain     mixing
     Exchange-correlation      = BLYP ( 1  3  1  3 0 0)
     nstep                     =           50

     celldm(1)=  20.000000  celldm(2)=   0.000000  celldm(3)=   0.000000
     celldm(4)=   0.000000  celldm(5)=   0.000000  celldm(6)=   0.000000

     crystal axes: (cart. coord. in units of alat)
               a(1) = (   1.000000   0.000000   0.000000 )
               a(2) = (   0.000000   1.000000   0.000000 )
               a(3) = (   0.000000   0.000000   1.000000 )

     reciprocal axes: (cart. coord. in units 2 pi/alat)
               b(1) = (  1.000000  0.000000  0.000000 )
               b(2) = (  0.000000  1.000000  0.000000 )
               b(3) = (  0.000000  0.000000  1.000000 )

     PseudoPot. # 1 for Au read from file:
     ./Au.blyp-d-hgh.UPF
     MD5 check sum: c10d8bae01f806c36a1643a1c69a8479
     Pseudo is Norm-conserving, Zval = 11.0
     Generated in analytical, separable form
     Using radial grid of 1279 points,  6 beta functions with:
                l(1) =   0
                l(2) =   0
                l(3) =   1
                l(4) =   1
                l(5) =   2
                l(6) =   2

     atomic species   valence    mass     pseudopotential
        Au            11.00    28.08600     Au( 1.00)

     No symmetry found

   Cartesian axes

     site n.     atom                  positions (alat units)
         1           Au  tau(   1) = (   0.0440209   0.0070807   0.0439541  )
         2           Au  tau(   2) = (   0.0584566   0.1836869   0.1965983  )
         3           Au  tau(   3) = (   0.1667047   0.2346278  -0.0399619  )
         4           Au  tau(   4) = (   0.2440602   0.2370099   0.2222486  )
         5           Au  tau(   5) = (   0.2211787  -0.0114888   0.2121587  )

     number of k points=     1  Marzari-Vanderbilt smearing, width (Ry)=  0.0250
                       cart. coord. in units 2pi/alat
        k(    1) = (   0.0000000   0.0000000   0.0000000), wk =   2.0000000

     Initial potential from superposition of free atoms
     Check: negative starting charge=   -0.006579

     starting charge   54.99940, renormalised to   55.00000

     negative rho (up, down):  6.579E-03 0.000E+00
     Starting wfc are   45 randomized atomic wfcs

     Self-consistent Calculation

     iteration #  1     ecut=    30.00 Ry     beta=0.70
     Davidson diagonalization with overlap
     ethr =  1.00E-02,  avg # of iterations =  4.0

     negative rho (up, down):  4.888E-04 0.000E+00

     total energy              =    -328.76998082 Ry
     Harris-Foulkes estimate   =    -329.15975945 Ry
     estimated scf accuracy    <       0.56856606 Ry

[...]

     End of self-consistent calculation

          k = 0.0000 0.0000 0.0000 ( 22119 PWs)   bands (ev):

   -10.6740  -9.8457  -9.4221  -9.1625  -8.2011  -7.6085  -7.3906  -7.1056
    -6.6426  -6.5975  -6.4255  -6.2228  -6.1279  -5.8079  -5.5209  -5.3367
    -5.2600  -5.2405  -5.1399  -5.0910  -4.9526  -4.9090  -4.8247  -4.6230
    -4.5027  -4.1369  -3.7316  -3.6903  -2.9334  -1.6441  -0.3960   0.0134
     0.3328   0.4762

     the Fermi energy is    -3.5669 ev

!    total energy              =    -329.06970574 Ry
     Harris-Foulkes estimate   =    -329.06970575 Ry
     estimated scf accuracy    <          8.5E-10 Ry

     The total energy is the sum of the following terms:

     one-electron contribution =    -699.14376271 Ry
     hartree contribution      =     370.44842941 Ry
     xc contribution           =     -51.75575006 Ry
     ewald contribution        =      51.38342941 Ry
     smearing contrib. (-TS)   =      -0.00205180 Ry

     convergence has been achieved in  16 iterations

     Forces acting on atoms (Ry/au):

     atom    1 type  1   force =    -0.04284265   -0.08696781   -0.10981207
     atom    2 type  1   force =    -0.76156550   -0.10169779   -0.02634825
     atom    3 type  1   force =    -0.00405349    0.00812585   -0.02237106
     atom    4 type  1   force =     0.75735273    0.26406478    0.11992799
     atom    5 type  1   force =     0.05110892   -0.08352502    0.03860340

     Total force =     1.132181     Total SCF correction =     0.000112

     BFGS Geometry Optimization

     number of scf cycles    =   1
     number of bfgs steps    =   0

     energy   new            =    -329.0697057389 Ry

     new trust radius        =       0.5000000000 bohr
     new conv_thr            =       0.0000000100 Ry

ATOMIC_POSITIONS (bohr)
Au       0.854004028   0.087995345   0.811378071
Au       0.699601602   3.611038804   3.915721394
Au       3.331594883   4.697566864  -0.813030529
Au       5.348139078   4.903004043   4.518911740
Au       4.455084410  -0.281271056   4.266974325

     Writing output data file pwscf.save
     Check: negative starting charge=   -0.006579
     NEW-OLD atomic charge density approx. for the potential
     Check: negative starting charge=   -0.006284

[...]

     energy   old            =    -329.0697057389 Ry
     energy   new            =    -329.3769476575 Ry

     CASE: energy  _new < energy  _old

[...]

     Threshold (ethr) on eigenvalues was too large:
     Diagonalizing with lowered threshold

     Davidson diagonalization with overlap
     ethr =  6.25E-08,  avg # of iterations =  1.0

[...]

     number of scf cycles    =  29
     number of bfgs steps    =  28

     energy   old            =    -329.4161158902 Ry
     energy   new            =    -329.4161333317 Ry

     CASE: energy  _new < energy  _old

     new trust radius        =       0.0107609783 bohr
     new conv_thr            =            1.0E-10 Ry

ATOMIC_POSITIONS (bohr)
Au       0.726139301  -0.178948568   0.263727064
Au       0.650047573   3.636639022   3.956299800
Au       3.123240962   4.429993406  -0.510778743
Au       5.772027378   5.076468287   4.480905921
Au       4.416968786   0.054181853   4.509800958

     Writing output data file pwscf.save
     Check: negative starting charge=   -0.006176
     NEW-OLD atomic charge density approx. for the potential
     Check: negative starting charge=   -0.006181

     negative rho (up, down):  5.970E-06 0.000E+00

     Self-consistent Calculation

[...]

     Threshold (ethr) on eigenvalues was too large:
     Diagonalizing with lowered threshold

     Davidson diagonalization with overlap
     ethr =  3.58E-08,  avg # of iterations =  1.0

[...]

     total energy              =    -329.41614521 Ry
     Harris-Foulkes estimate   =    -329.41614522 Ry
     estimated scf accuracy    <          1.3E-10 Ry

     iteration # 11     ecut=    30.00 Ry     beta=0.70
     Davidson diagonalization with overlap
     ethr =  2.41E-13,  avg # of iterations =  2.0

     End of self-consistent calculation

          k = 0.0000 0.0000 0.0000 ( 22119 PWs)   bands (ev):

    -8.4938  -7.7339  -7.4474  -7.0836  -6.9297  -6.8285  -6.7062  -6.6243
    -6.2645  -6.1740  -6.0618  -5.8658  -5.6416  -5.5493  -5.5370  -5.4009
    -5.3853  -5.2918  -5.2358  -5.1801  -5.1462  -5.0541  -4.9476  -4.8057
    -4.7536  -4.6815  -3.9399  -3.5850  -3.1279  -2.1655  -0.3160   0.0246
     0.2383   0.4588

     the Fermi energy is    -3.5669 ev

!    total energy              =    -329.41614520 Ry
     Harris-Foulkes estimate   =    -329.41614521 Ry
     estimated scf accuracy    <          1.4E-11 Ry

     The total energy is the sum of the following terms:

     one-electron contribution =    -636.18967827 Ry
     hartree contribution      =     339.56502036 Ry
     xc contribution           =     -51.36351725 Ry
     ewald contribution        =      18.57449054 Ry
     smearing contrib. (-TS)   =      -0.00246057 Ry

     convergence has been achieved in  11 iterations

     Forces acting on atoms (Ry/au):

     atom    1 type  1   force =     0.00010899    0.00045804    0.00091275
     atom    2 type  1   force =     0.00086951   -0.00068556   -0.00026930
     atom    3 type  1   force =    -0.00028165   -0.00003226    0.00016689
     atom    4 type  1   force =    -0.00046590   -0.00005650   -0.00037500
     atom    5 type  1   force =    -0.00023095    0.00031629   -0.00043534

     Total force =     0.001779     Total SCF correction =     0.000017

     bfgs converged in  30 scf cycles and  29 bfgs steps
     (criteria: energy <  1.0E-04, force <  1.0E-03)

     End of BFGS Geometry Optimization

     Final energy   =    -329.4161451959 Ry
Begin final coordinates

ATOMIC_POSITIONS (bohr)
Au       0.726139301  -0.178948568   0.263727064
Au       0.650047573   3.636639022   3.956299800
Au       3.123240962   4.429993406  -0.510778743
Au       5.772027378   5.076468287   4.480905921
Au       4.416968786   0.054181853   4.509800958
End final coordinates

     Writing output data file pwscf.save

     General routines

     Parallel routines

   This run was terminated on:   6:21:43   4Aug2017

   JOB DONE.