     Program PWSCF v.6.0 (svn rev. 13079) starts on  3Aug2017 at 17: 2: 6

     Current dimensions of program PWSCF are:
     Max number of different atomic species (ntypx) = 10
     Max number of k-points (npk) =  40000
     Max angular momentum in pseudopotentials (lmaxx) =  3
     Message from routine iosys:
     pot_extrapolation='second-order' not available, using 'atomic'
     Message from routine iosys:
     wfc_extrapolation='second-order' not available, using 'atomic'

     Subspace diagonalization in iterative solution of the eigenvalue problem:
     a serial algorithm will be used

     bravais-lattice index     =            1
     lattice parameter (alat)  =      20.0000  a.u.
     unit-cell volume          =    8000.0000 (a.u.)^3
     number of atoms/cell      =            5
     number of atomic types    =            1
     number of electrons       =        55.00
     number of Kohn-Sham states=           34
     kinetic-energy cutoff     =      30.0000  Ry
     charge density cutoff     =     120.0000  Ry
     convergence threshold     =      1.0E-08
     mixing beta               =       0.7000
     number of iterations used =            8  plain     mixing
     Exchange-correlation      = BLYP ( 1  3  1  3 0 0)
     nstep                     =           50

     celldm(1)=  20.000000  celldm(2)=   0.000000  celldm(3)=   0.000000
     celldm(4)=   0.000000  celldm(5)=   0.000000  celldm(6)=   0.000000

     crystal axes: (cart. coord. in units of alat)
               a(1) = (   1.000000   0.000000   0.000000 )
               a(2) = (   0.000000   1.000000   0.000000 )
               a(3) = (   0.000000   0.000000   1.000000 )

     reciprocal axes: (cart. coord. in units 2 pi/alat)
               b(1) = (  1.000000  0.000000  0.000000 )
               b(2) = (  0.000000  1.000000  0.000000 )
               b(3) = (  0.000000  0.000000  1.000000 )

     PseudoPot. # 1 for Au read from file:
     ./Au.blyp-d-hgh.UPF
     MD5 check sum: c10d8bae01f806c36a1643a1c69a8479
     Pseudo is Norm-conserving, Zval = 11.0
     Generated in analytical, separable form
     Using radial grid of 1279 points,  6 beta functions with:
                l(1) =   0
                l(2) =   0
                l(3) =   1
                l(4) =   1
                l(5) =   2
                l(6) =   2

     atomic species   valence    mass     pseudopotential
        Au            11.00    28.08600     Au( 1.00)

     No symmetry found

   Cartesian axes

     site n.     atom                  positions (alat units)
         1           Au  tau(   1) = (  -0.0930931   0.0956570  -0.0420864  )
         2           Au  tau(   2) = (  -0.0362199   0.1571884   0.2139386  )
         3           Au  tau(   3) = (   0.1511380   0.1043250   0.0323131  )
         4           Au  tau(   4) = (   0.1984199   0.2022403   0.2812025  )
         5           Au  tau(   5) = (   0.3820522   0.0679795   0.1176489  )

     number of k points=     1  Marzari-Vanderbilt smearing, width (Ry)=  0.0250
                       cart. coord. in units 2pi/alat
        k(    1) = (   0.0000000   0.0000000   0.0000000), wk =   2.0000000

     Initial potential from superposition of free atoms
     Check: negative starting charge=   -0.006421

     starting charge   54.99940, renormalised to   55.00000

     negative rho (up, down):  6.421E-03 0.000E+00
     Starting wfc are   45 randomized atomic wfcs

     Self-consistent Calculation

     iteration #  1     ecut=    30.00 Ry     beta=0.70
     Davidson diagonalization with overlap
     ethr =  1.00E-02,  avg # of iterations =  3.0

     Threshold (ethr) on eigenvalues was too large:
     Diagonalizing with lowered threshold

     Davidson diagonalization with overlap
     ethr =  4.11E-04,  avg # of iterations =  3.0

     negative rho (up, down):  8.892E-04 0.000E+00

     total energy              =    -329.36974519 Ry
     Harris-Foulkes estimate   =    -329.53469367 Ry
     estimated scf accuracy    <       0.27885675 Ry

[...]

     End of self-consistent calculation

          k = 0.0000 0.0000 0.0000 ( 22119 PWs)   bands (ev):

    -8.4368  -7.8490  -7.6110  -7.1647  -6.8897  -6.6789  -6.5828  -6.3423
    -6.0916  -6.0244  -5.8084  -5.7204  -5.6914  -5.5988  -5.3928  -5.3656
    -5.3226  -5.2554  -5.2139  -5.1820  -5.0841  -5.0632  -4.9280  -4.9021
    -4.7594  -4.6774  -4.4500  -3.8974  -2.4197  -2.2635  -0.5159  -0.2145
     0.5669   0.7194

     the Fermi energy is    -3.9027 ev

!    total energy              =    -329.47779725 Ry
     Harris-Foulkes estimate   =    -329.47779731 Ry
     estimated scf accuracy    <          7.9E-09 Ry

     The total energy is the sum of the following terms:

     one-electron contribution =    -604.65271142 Ry
     hartree contribution      =     323.85580049 Ry
     xc contribution           =     -51.40395473 Ry
     ewald contribution        =       2.71902609 Ry
     smearing contrib. (-TS)   =       0.00404232 Ry

     convergence has been achieved in  11 iterations

     Forces acting on atoms (Ry/au):

     atom    1 type  1   force =     0.00764218    0.00562552    0.01656612
     atom    2 type  1   force =    -0.02899303   -0.00650235   -0.02251924
     atom    3 type  1   force =    -0.01054090   -0.00431772   -0.00444531
     atom    4 type  1   force =     0.03678143   -0.00728155   -0.00510109
     atom    5 type  1   force =    -0.00488968    0.01247609    0.01549952

     Total force =     0.061284     Total SCF correction =     0.000381

     BFGS Geometry Optimization

     number of scf cycles    =   1
     number of bfgs steps    =   0

     energy   new            =    -329.4777972489 Ry

     new trust radius        =       0.0378406589 bohr
     new conv_thr            =       0.0000000100 Ry

ATOMIC_POSITIONS (bohr)
Au      -1.854219815   1.918766523  -0.825161882
Au      -0.753391033   3.137266652   4.256252760
Au       3.012218099   2.082182284   0.641817690
Au       4.005180428   4.037525452   5.618948913
Au       7.636155321   1.372066089   2.368477520

     Writing output data file pwscf.save
     Check: negative starting charge=   -0.006421
     NEW-OLD atomic charge density approx. for the potential
     Check: negative starting charge=   -0.006433

[...]

     energy   old            =    -329.4777972489 Ry
     energy   new            =    -329.4810702953 Ry

     CASE: energy  _new < energy  _old

[...]

     WARNING: bfgs curvature condition failed, Theta= 0.931
     new trust radius        =       0.0120820891 bohr
     new conv_thr            =       0.0000000003 Ry

[...]

     number of scf cycles    =  32
     number of bfgs steps    =  31

     energy   old            =    -329.4915461664 Ry
     energy   new            =    -329.4915686483 Ry

     CASE: energy  _new < energy  _old

     new trust radius        =       0.0091260363 bohr
     new conv_thr            =            1.0E-10 Ry

ATOMIC_POSITIONS (bohr)
Au      -1.892428648   1.940449210  -0.744617087
Au      -0.817866609   3.649079948   4.004350619
Au       2.975513778   1.702360109   0.656799258
Au       4.099677301   3.604896833   5.637827458
Au       7.681047178   1.651020901   2.505974752

     Writing output data file pwscf.save
     Check: negative starting charge=   -0.006479
     NEW-OLD atomic charge density approx. for the potential
     Check: negative starting charge=   -0.006484

     negative rho (up, down):  7.921E-06 0.000E+00

     Self-consistent Calculation

[...]

     Threshold (ethr) on eigenvalues was too large:
     Diagonalizing with lowered threshold

     Davidson diagonalization with overlap
     ethr =  4.97E-08,  avg # of iterations =  1.0

[...]

     total energy              =    -329.49157700 Ry
     Harris-Foulkes estimate   =    -329.49157703 Ry
     estimated scf accuracy    <          6.8E-10 Ry

     iteration #  9     ecut=    30.00 Ry     beta=0.70
     Davidson diagonalization with overlap
     ethr =  1.24E-12,  avg # of iterations =  2.0

     End of self-consistent calculation

          k = 0.0000 0.0000 0.0000 ( 22119 PWs)   bands (ev):

    -8.4948  -7.7817  -7.6469  -7.2420  -6.8502  -6.8080  -6.6289  -6.4791
    -6.3135  -6.0668  -5.9625  -5.7665  -5.7289  -5.6827  -5.4680  -5.3667
    -5.3132  -5.2475  -5.1973  -5.1867  -5.1746  -5.1255  -5.0085  -4.9178
    -4.8379  -4.7435  -4.4745  -3.7786  -2.5132  -2.1891  -0.5636  -0.1899
     0.5081   0.8931

     the Fermi energy is    -3.7464 ev

!    total energy              =    -329.49157702 Ry
     Harris-Foulkes estimate   =    -329.49157700 Ry
     estimated scf accuracy    <          9.0E-11 Ry

     The total energy is the sum of the following terms:

     one-electron contribution =    -608.98157932 Ry
     hartree contribution      =     325.92157415 Ry
     xc contribution           =     -51.40056531 Ry
     ewald contribution        =       4.97327642 Ry
     smearing contrib. (-TS)   =      -0.00428295 Ry

     convergence has been achieved in   9 iterations

     Forces acting on atoms (Ry/au):

     atom    1 type  1   force =     0.00078968   -0.00002714   -0.00030948
     atom    2 type  1   force =     0.00018680    0.00002910   -0.00032020
     atom    3 type  1   force =    -0.00021970   -0.00040542    0.00015353
     atom    4 type  1   force =     0.00014644    0.00056593    0.00030908
     atom    5 type  1   force =    -0.00090322   -0.00016247    0.00016706

     Total force =     0.001550     Total SCF correction =     0.000044

     bfgs converged in  33 scf cycles and  32 bfgs steps
     (criteria: energy <  1.0E-04, force <  1.0E-03)

     End of BFGS Geometry Optimization

     Final energy   =    -329.4915770165 Ry
Begin final coordinates

ATOMIC_POSITIONS (bohr)
Au      -1.892428648   1.940449210  -0.744617087
Au      -0.817866609   3.649079948   4.004350619
Au       2.975513778   1.702360109   0.656799258
Au       4.099677301   3.604896833   5.637827458
Au       7.681047178   1.651020901   2.505974752
End final coordinates

     Writing output data file pwscf.save

     General routines

     Parallel routines

   This run was terminated on:  17: 3:42   3Aug2017

   JOB DONE.