     Program PWSCF v.6.0 (svn rev. 13079) starts on  4Aug2017 at  0: 8:46

     Current dimensions of program PWSCF are:
     Max number of different atomic species (ntypx) = 10
     Max number of k-points (npk) =  40000
     Max angular momentum in pseudopotentials (lmaxx) =  3
     Message from routine iosys:
     pot_extrapolation='second-order' not available, using 'atomic'
     Message from routine iosys:
     wfc_extrapolation='second-order' not available, using 'atomic'

     Subspace diagonalization in iterative solution of the eigenvalue problem:
     a serial algorithm will be used

     bravais-lattice index     =            1
     lattice parameter (alat)  =      20.0000  a.u.
     unit-cell volume          =    8000.0000 (a.u.)^3
     number of atoms/cell      =            5
     number of atomic types    =            1
     number of electrons       =        55.00
     number of Kohn-Sham states=           34
     kinetic-energy cutoff     =      30.0000  Ry
     charge density cutoff     =     120.0000  Ry
     convergence threshold     =      1.0E-08
     mixing beta               =       0.7000
     number of iterations used =            8  plain     mixing
     Exchange-correlation      = BLYP ( 1  3  1  3 0 0)
     nstep                     =           50

     celldm(1)=  20.000000  celldm(2)=   0.000000  celldm(3)=   0.000000
     celldm(4)=   0.000000  celldm(5)=   0.000000  celldm(6)=   0.000000

     crystal axes: (cart. coord. in units of alat)
               a(1) = (   1.000000   0.000000   0.000000 )
               a(2) = (   0.000000   1.000000   0.000000 )
               a(3) = (   0.000000   0.000000   1.000000 )

     reciprocal axes: (cart. coord. in units 2 pi/alat)
               b(1) = (  1.000000  0.000000  0.000000 )
               b(2) = (  0.000000  1.000000  0.000000 )
               b(3) = (  0.000000  0.000000  1.000000 )

     PseudoPot. # 1 for Au read from file:
     ./Au.blyp-d-hgh.UPF
     MD5 check sum: c10d8bae01f806c36a1643a1c69a8479
     Pseudo is Norm-conserving, Zval = 11.0
     Generated in analytical, separable form
     Using radial grid of 1279 points,  6 beta functions with:
                l(1) =   0
                l(2) =   0
                l(3) =   1
                l(4) =   1
                l(5) =   2
                l(6) =   2

     atomic species   valence    mass     pseudopotential
        Au            11.00    28.08600     Au( 1.00)

     No symmetry found

   Cartesian axes

     site n.     atom                  positions (alat units)
         1           Au  tau(   1) = (  -0.1109650   0.1701330  -0.0249141  )
         2           Au  tau(   2) = (  -0.0140968   0.2553603   0.1906917  )
         3           Au  tau(   3) = (   0.1387397   0.1043748   0.0083458  )
         4           Au  tau(   4) = (   0.2262304   0.2168263   0.2724276  )
         5           Au  tau(   5) = (   0.3747540   0.0573844   0.1379685  )

     number of k points=     1  Marzari-Vanderbilt smearing, width (Ry)=  0.0250
                       cart. coord. in units 2pi/alat
        k(    1) = (   0.0000000   0.0000000   0.0000000), wk =   2.0000000

     Initial potential from superposition of free atoms
     Check: negative starting charge=   -0.006158

     starting charge   54.99940, renormalised to   55.00000

     negative rho (up, down):  6.159E-03 0.000E+00
     Starting wfc are   45 randomized atomic wfcs

     Self-consistent Calculation

     iteration #  1     ecut=    30.00 Ry     beta=0.70
     Davidson diagonalization with overlap
     ethr =  1.00E-02,  avg # of iterations =  4.0

     Threshold (ethr) on eigenvalues was too large:
     Diagonalizing with lowered threshold

     Davidson diagonalization with overlap
     ethr =  3.84E-04,  avg # of iterations =  3.0

     negative rho (up, down):  8.163E-04 0.000E+00

     total energy              =    -329.37028415 Ry
     Harris-Foulkes estimate   =    -329.52901706 Ry
     estimated scf accuracy    <       0.26563829 Ry

[...]

     End of self-consistent calculation

          k = 0.0000 0.0000 0.0000 ( 22119 PWs)   bands (ev):

    -8.0309  -7.4947  -7.4500  -7.0484  -6.8355  -6.6442  -6.5364  -6.3595
    -6.1896  -6.0129  -5.8059  -5.6707  -5.6217  -5.5652  -5.4186  -5.4099
    -5.3288  -5.1989  -5.1792  -5.1701  -5.1309  -5.1206  -5.0856  -4.9147
    -4.8308  -4.7372  -4.4092  -3.8097  -2.7430  -2.1070  -0.4644  -0.2081
     0.4210   0.6583

     the Fermi energy is    -3.7924 ev

!    total energy              =    -329.47669951 Ry
     Harris-Foulkes estimate   =    -329.47669954 Ry
     estimated scf accuracy    <          7.4E-09 Ry

     The total energy is the sum of the following terms:

     one-electron contribution =    -589.87476536 Ry
     hartree contribution      =     316.50452921 Ry
     xc contribution           =     -51.35930294 Ry
     ewald contribution        =      -4.74597217 Ry
     smearing contrib. (-TS)   =      -0.00118825 Ry

     convergence has been achieved in  12 iterations

     Forces acting on atoms (Ry/au):

     atom    1 type  1   force =     0.01059596   -0.00750421   -0.01174511
     atom    2 type  1   force =     0.00887117   -0.00267953    0.00126475
     atom    3 type  1   force =     0.00649475    0.00831441    0.03226221
     atom    4 type  1   force =     0.00155149   -0.00583183   -0.00809969
     atom    5 type  1   force =    -0.02751337    0.00770116   -0.01368216

     Total force =     0.051495     Total SCF correction =     0.000247

     BFGS Geometry Optimization

     number of scf cycles    =   1
     number of bfgs steps    =   0

     energy   new            =    -329.4766995068 Ry

     new trust radius        =       0.0339435076 bohr
     new conv_thr            =       0.0000000100 Ry

ATOMIC_POSITIONS (bohr)
Au      -2.208704044   3.395155785  -0.510027113
Au      -0.273065832   5.104526472   3.815098751
Au       2.781288753   2.095810411   0.199177214
Au       4.526159491   4.330694173   5.440452306
Au       7.467566631   1.155389159   2.745687842

     Writing output data file pwscf.save
     Check: negative starting charge=   -0.006158
     NEW-OLD atomic charge density approx. for the potential
     Check: negative starting charge=   -0.006174

[...]

     energy   old            =    -329.4766995068 Ry
     energy   new            =    -329.4792378019 Ry

     CASE: energy  _new < energy  _old

     WARNING: bfgs curvature condition failed, Theta= 0.877
     new trust radius        =       0.0373378584 bohr
     new conv_thr            =       0.0000000025 Ry

[...]

     number of scf cycles    =  31
     number of bfgs steps    =  30

     energy   old            =    -329.4934544282 Ry
     energy   new            =    -329.4934690865 Ry

     CASE: energy  _new < energy  _old

     new trust radius        =       0.0082054159 bohr
     new conv_thr            =            1.0E-10 Ry

ATOMIC_POSITIONS (bohr)
Au      -1.932194409   3.365383353  -0.738554931
Au      -0.325382511   5.296009921   3.791965023
Au       2.765333470   2.168377745   0.660988252
Au       4.451303578   4.166842841   5.460827221
Au       7.334184872   1.084962141   2.515163436

     Writing output data file pwscf.save
     Check: negative starting charge=   -0.006323
     NEW-OLD atomic charge density approx. for the potential
     Check: negative starting charge=   -0.006330

     negative rho (up, down):  2.968E-06 0.000E+00

     Self-consistent Calculation

[...]

     Threshold (ethr) on eigenvalues was too large:
     Diagonalizing with lowered threshold

     Davidson diagonalization with overlap
     ethr =  2.48E-08,  avg # of iterations =  2.0

[...]

     total energy              =    -329.49348652 Ry
     Harris-Foulkes estimate   =    -329.49348649 Ry
     estimated scf accuracy    <          5.8E-10 Ry

     iteration #  9     ecut=    30.00 Ry     beta=0.70
     Davidson diagonalization with overlap
     ethr =  1.06E-12,  avg # of iterations =  2.0

     End of self-consistent calculation

          k = 0.0000 0.0000 0.0000 ( 22119 PWs)   bands (ev):

    -8.5085  -7.7815  -7.6472  -7.2280  -6.8494  -6.8150  -6.6082  -6.4760
    -6.3035  -6.0741  -5.9502  -5.7694  -5.7290  -5.6801  -5.4501  -5.3587
    -5.3106  -5.2443  -5.1945  -5.1758  -5.1659  -5.1196  -4.9932  -4.9211
    -4.8342  -4.7286  -4.4783  -3.7772  -2.4358  -2.1834  -0.5189  -0.1871
     0.5079   0.7634

     the Fermi energy is    -3.7446 ev

!    total energy              =    -329.49348647 Ry
     Harris-Foulkes estimate   =    -329.49348652 Ry
     estimated scf accuracy    <          5.9E-11 Ry

     The total energy is the sum of the following terms:

     one-electron contribution =    -605.97434904 Ry
     hartree contribution      =     324.42605663 Ry
     xc contribution           =     -51.39936673 Ry
     ewald contribution        =       3.45852643 Ry
     smearing contrib. (-TS)   =      -0.00435375 Ry

     convergence has been achieved in   9 iterations

     Forces acting on atoms (Ry/au):

     atom    1 type  1   force =    -0.00070634    0.00065597   -0.00040215
     atom    2 type  1   force =     0.00095486   -0.00053577   -0.00023377
     atom    3 type  1   force =     0.00020562   -0.00010772    0.00027696
     atom    4 type  1   force =    -0.00095677    0.00027457    0.00071688
     atom    5 type  1   force =     0.00050263   -0.00028705   -0.00035792

     Total force =     0.002108     Total SCF correction =     0.000032

     bfgs converged in  32 scf cycles and  31 bfgs steps
     (criteria: energy <  1.0E-04, force <  1.0E-03)

     End of BFGS Geometry Optimization

     Final energy   =    -329.4934864685 Ry
Begin final coordinates

ATOMIC_POSITIONS (bohr)
Au      -1.932194409   3.365383353  -0.738554931
Au      -0.325382511   5.296009921   3.791965023
Au       2.765333470   2.168377745   0.660988252
Au       4.451303578   4.166842841   5.460827221
Au       7.334184872   1.084962141   2.515163436
End final coordinates

     Writing output data file pwscf.save

     General routines

     Parallel routines

   This run was terminated on:   0:10: 8   4Aug2017

   JOB DONE.