     Program PWSCF v.6.0 (svn rev. 13079) starts on  3Aug2017 at 16:22:49

     Current dimensions of program PWSCF are:
     Max number of different atomic species (ntypx) = 10
     Max number of k-points (npk) =  40000
     Max angular momentum in pseudopotentials (lmaxx) =  3
     Message from routine iosys:
     pot_extrapolation='second-order' not available, using 'atomic'
     Message from routine iosys:
     wfc_extrapolation='second-order' not available, using 'atomic'

     Subspace diagonalization in iterative solution of the eigenvalue problem:
     a serial algorithm will be used

     bravais-lattice index     =            1
     lattice parameter (alat)  =      20.0000  a.u.
     unit-cell volume          =    8000.0000 (a.u.)^3
     number of atoms/cell      =            5
     number of atomic types    =            1
     number of electrons       =        55.00
     number of Kohn-Sham states=           34
     kinetic-energy cutoff     =      30.0000  Ry
     charge density cutoff     =     120.0000  Ry
     convergence threshold     =      1.0E-08
     mixing beta               =       0.7000
     number of iterations used =            8  plain     mixing
     Exchange-correlation      = BLYP ( 1  3  1  3 0 0)
     nstep                     =           50

     celldm(1)=  20.000000  celldm(2)=   0.000000  celldm(3)=   0.000000
     celldm(4)=   0.000000  celldm(5)=   0.000000  celldm(6)=   0.000000

     crystal axes: (cart. coord. in units of alat)
               a(1) = (   1.000000   0.000000   0.000000 )
               a(2) = (   0.000000   1.000000   0.000000 )
               a(3) = (   0.000000   0.000000   1.000000 )

     reciprocal axes: (cart. coord. in units 2 pi/alat)
               b(1) = (  1.000000  0.000000  0.000000 )
               b(2) = (  0.000000  1.000000  0.000000 )
               b(3) = (  0.000000  0.000000  1.000000 )

     PseudoPot. # 1 for Au read from file:
     ./Au.blyp-d-hgh.UPF
     MD5 check sum: c10d8bae01f806c36a1643a1c69a8479
     Pseudo is Norm-conserving, Zval = 11.0
     Generated in analytical, separable form
     Using radial grid of 1279 points,  6 beta functions with:
                l(1) =   0
                l(2) =   0
                l(3) =   1
                l(4) =   1
                l(5) =   2
                l(6) =   2

     atomic species   valence    mass     pseudopotential
        Au            11.00    28.08600     Au( 1.00)

     No symmetry found

   Cartesian axes

     site n.     atom                  positions (alat units)
         1           Au  tau(   1) = (  -0.0968569   0.0857711  -0.0470945  )
         2           Au  tau(   2) = (  -0.0406979   0.1744041   0.1818898  )
         3           Au  tau(   3) = (   0.1484251   0.0372130   0.0239981  )
         4           Au  tau(   4) = (   0.1936208   0.1665757   0.2863809  )
         5           Au  tau(   5) = (   0.3872117   0.0608792   0.1568102  )

     number of k points=     1  Marzari-Vanderbilt smearing, width (Ry)=  0.0250
                       cart. coord. in units 2pi/alat
        k(    1) = (   0.0000000   0.0000000   0.0000000), wk =   2.0000000

     Initial potential from superposition of free atoms
     Check: negative starting charge=   -0.006308

     starting charge   54.99940, renormalised to   55.00000

     negative rho (up, down):  6.308E-03 0.000E+00
     Starting wfc are   45 randomized atomic wfcs

     Self-consistent Calculation

     iteration #  1     ecut=    30.00 Ry     beta=0.70
     Davidson diagonalization with overlap
     ethr =  1.00E-02,  avg # of iterations =  3.0

     Threshold (ethr) on eigenvalues was too large:
     Diagonalizing with lowered threshold

     Davidson diagonalization with overlap
     ethr =  3.84E-04,  avg # of iterations =  5.0

     negative rho (up, down):  8.569E-04 0.000E+00

     total energy              =    -329.37088957 Ry
     Harris-Foulkes estimate   =    -329.52950962 Ry
     estimated scf accuracy    <       0.26545813 Ry

[...]

     End of self-consistent calculation

          k = 0.0000 0.0000 0.0000 ( 22119 PWs)   bands (ev):

    -8.0485  -7.5063  -7.4699  -7.0773  -6.8225  -6.6543  -6.5483  -6.3707
    -6.2101  -6.0100  -5.8131  -5.6676  -5.6296  -5.5736  -5.4377  -5.4125
    -5.3343  -5.2103  -5.1880  -5.1808  -5.1361  -5.1273  -5.0917  -4.8997
    -4.8379  -4.7738  -4.4157  -3.8023  -2.7604  -2.1335  -0.4980  -0.1965
     0.3779   0.7848

     the Fermi energy is    -3.7818 ev

!    total energy              =    -329.47666859 Ry
     Harris-Foulkes estimate   =    -329.47666858 Ry
     estimated scf accuracy    <          3.6E-09 Ry

     The total energy is the sum of the following terms:

     one-electron contribution =    -591.97092179 Ry
     hartree contribution      =     317.53511506 Ry
     xc contribution           =     -51.35934877 Ry
     ewald contribution        =      -3.67963766 Ry
     smearing contrib. (-TS)   =      -0.00187542 Ry

     convergence has been achieved in  13 iterations

     Forces acting on atoms (Ry/au):

     atom    1 type  1   force =     0.01108223   -0.00950890   -0.00635486
     atom    2 type  1   force =     0.00668361   -0.00008408    0.00042663
     atom    3 type  1   force =     0.00705084    0.01982719    0.02840173
     atom    4 type  1   force =     0.00405985   -0.00576985   -0.00850910
     atom    5 type  1   force =    -0.02887653   -0.00446437   -0.01396440

     Total force =     0.052143     Total SCF correction =     0.000269

     BFGS Geometry Optimization

     number of scf cycles    =   1
     number of bfgs steps    =   0

     energy   new            =    -329.4766685852 Ry

     new trust radius        =       0.0353481265 bohr
     new conv_thr            =       0.0000000100 Ry

ATOMIC_POSITIONS (bohr)
Au      -1.926056771   1.705914099  -0.948244858
Au      -0.807274395   3.487996923   3.638223634
Au       2.975551844   0.764087195   0.508363725
Au       3.876474852   3.325743152   5.719107901
Au       7.715358470   1.213120631   3.122238598

     Writing output data file pwscf.save
     Check: negative starting charge=   -0.006308
     NEW-OLD atomic charge density approx. for the potential
     Check: negative starting charge=   -0.006320

[...]

     energy   old            =    -329.4766685852 Ry
     energy   new            =    -329.4792530440 Ry

     CASE: energy  _new < energy  _old

     WARNING: bfgs curvature condition failed, Theta= 0.889
     new trust radius        =       0.0388829391 bohr
     new conv_thr            =       0.0000000026 Ry

[...]

     WARNING: bfgs curvature condition failed, Theta= 0.958
     new trust radius        =       0.0381950863 bohr
     new conv_thr            =            1.0E-10 Ry

[...]

     CASE: energy  _new > energy  _old

[...]

     number of scf cycles    =  42
     number of bfgs steps    =  40

     energy   old            =    -329.4932009912 Ry
     energy   new            =    -329.4932105053 Ry

     CASE: energy  _new < energy  _old

     new trust radius        =       0.0067474783 bohr
     new conv_thr            =            1.0E-10 Ry

ATOMIC_POSITIONS (bohr)
Au      -1.630735320   1.675502664  -1.168617212
Au      -0.830230084   3.690434520   3.531504641
Au       2.989807470   1.074383057   0.806362381
Au       3.838366200   3.289569864   5.760017401
Au       7.466845734   0.766971896   3.110421788

     Writing output data file pwscf.save
     Check: negative starting charge=   -0.006334
     NEW-OLD atomic charge density approx. for the potential
     Check: negative starting charge=   -0.006337

     negative rho (up, down):  1.407E-06 0.000E+00

     Self-consistent Calculation

[...]

     Threshold (ethr) on eigenvalues was too large:
     Diagonalizing with lowered threshold

     Davidson diagonalization with overlap
     ethr =  1.44E-08,  avg # of iterations =  2.0

[...]

     total energy              =    -329.49321941 Ry
     Harris-Foulkes estimate   =    -329.49321939 Ry
     estimated scf accuracy    <          3.8E-10 Ry

     iteration #  9     ecut=    30.00 Ry     beta=0.70
     Davidson diagonalization with overlap
     ethr =  6.86E-13,  avg # of iterations =  3.0

     End of self-consistent calculation

          k = 0.0000 0.0000 0.0000 ( 22119 PWs)   bands (ev):

    -8.5054  -7.7774  -7.6456  -7.2288  -6.8527  -6.8122  -6.6087  -6.4772
    -6.3027  -6.0760  -5.9546  -5.7657  -5.7265  -5.6835  -5.4588  -5.3555
    -5.3143  -5.2489  -5.1993  -5.1834  -5.1648  -5.1231  -5.0026  -4.9259
    -4.8487  -4.7244  -4.4833  -3.7711  -2.4405  -2.2131  -0.5349  -0.1718
     0.4570   0.8091

     the Fermi energy is    -3.7371 ev

!    total energy              =    -329.49321941 Ry
     Harris-Foulkes estimate   =    -329.49321941 Ry
     estimated scf accuracy    <          8.3E-11 Ry

     The total energy is the sum of the following terms:

     one-electron contribution =    -606.59969560 Ry
     hartree contribution      =     324.73396232 Ry
     xc contribution           =     -51.39771917 Ry
     ewald contribution        =       3.77489909 Ry
     smearing contrib. (-TS)   =      -0.00466605 Ry

     convergence has been achieved in   9 iterations

     Forces acting on atoms (Ry/au):

     atom    1 type  1   force =     0.00007334    0.00027601    0.00011028
     atom    2 type  1   force =     0.00054717   -0.00046166    0.00075573
     atom    3 type  1   force =    -0.00063713    0.00041780   -0.00021804
     atom    4 type  1   force =    -0.00046759    0.00021579   -0.00031793
     atom    5 type  1   force =     0.00048421   -0.00044794   -0.00033004

     Total force =     0.001648     Total SCF correction =     0.000036

     bfgs converged in  43 scf cycles and  41 bfgs steps
     (criteria: energy <  1.0E-04, force <  1.0E-03)

     End of BFGS Geometry Optimization

     Final energy   =    -329.4932194094 Ry
Begin final coordinates

ATOMIC_POSITIONS (bohr)
Au      -1.630735320   1.675502664  -1.168617212
Au      -0.830230084   3.690434520   3.531504641
Au       2.989807470   1.074383057   0.806362381
Au       3.838366200   3.289569864   5.760017401
Au       7.466845734   0.766971896   3.110421788
End final coordinates

     Writing output data file pwscf.save

     General routines

     Parallel routines

   This run was terminated on:  16:24:51   3Aug2017

   JOB DONE.