     Program PWSCF v.6.0 (svn rev. 13079) starts on  3Aug2017 at 19:23: 7

     Current dimensions of program PWSCF are:
     Max number of different atomic species (ntypx) = 10
     Max number of k-points (npk) =  40000
     Max angular momentum in pseudopotentials (lmaxx) =  3
     Message from routine iosys:
     pot_extrapolation='second-order' not available, using 'atomic'
     Message from routine iosys:
     wfc_extrapolation='second-order' not available, using 'atomic'

     Subspace diagonalization in iterative solution of the eigenvalue problem:
     a serial algorithm will be used

     bravais-lattice index     =            1
     lattice parameter (alat)  =      20.0000  a.u.
     unit-cell volume          =    8000.0000 (a.u.)^3
     number of atoms/cell      =            5
     number of atomic types    =            1
     number of electrons       =        55.00
     number of Kohn-Sham states=           34
     kinetic-energy cutoff     =      30.0000  Ry
     charge density cutoff     =     120.0000  Ry
     convergence threshold     =      1.0E-08
     mixing beta               =       0.7000
     number of iterations used =            8  plain     mixing
     Exchange-correlation      = BLYP ( 1  3  1  3 0 0)
     nstep                     =           50

     celldm(1)=  20.000000  celldm(2)=   0.000000  celldm(3)=   0.000000
     celldm(4)=   0.000000  celldm(5)=   0.000000  celldm(6)=   0.000000

     crystal axes: (cart. coord. in units of alat)
               a(1) = (   1.000000   0.000000   0.000000 )
               a(2) = (   0.000000   1.000000   0.000000 )
               a(3) = (   0.000000   0.000000   1.000000 )

     reciprocal axes: (cart. coord. in units 2 pi/alat)
               b(1) = (  1.000000  0.000000  0.000000 )
               b(2) = (  0.000000  1.000000  0.000000 )
               b(3) = (  0.000000  0.000000  1.000000 )

     PseudoPot. # 1 for Au read from file:
     ./Au.blyp-d-hgh.UPF
     MD5 check sum: c10d8bae01f806c36a1643a1c69a8479
     Pseudo is Norm-conserving, Zval = 11.0
     Generated in analytical, separable form
     Using radial grid of 1279 points,  6 beta functions with:
                l(1) =   0
                l(2) =   0
                l(3) =   1
                l(4) =   1
                l(5) =   2
                l(6) =   2

     atomic species   valence    mass     pseudopotential
        Au            11.00    28.08600     Au( 1.00)

     No symmetry found

   Cartesian axes

     site n.     atom                  positions (alat units)
         1           Au  tau(   1) = (  -0.1001593   0.1471913  -0.0344421  )
         2           Au  tau(   2) = (  -0.0330715   0.2288337   0.2114327  )
         3           Au  tau(   3) = (   0.1483794   0.1264404   0.0254484  )
         4           Au  tau(   4) = (   0.2046410   0.1948497   0.2694744  )
         5           Au  tau(   5) = (   0.3783890   0.0776069   0.1213665  )

     number of k points=     1  Marzari-Vanderbilt smearing, width (Ry)=  0.0250
                       cart. coord. in units 2pi/alat
        k(    1) = (   0.0000000   0.0000000   0.0000000), wk =   2.0000000

     Initial potential from superposition of free atoms
     Check: negative starting charge=   -0.006454

     starting charge   54.99940, renormalised to   55.00000

     negative rho (up, down):  6.454E-03 0.000E+00
     Starting wfc are   45 randomized atomic wfcs

     Self-consistent Calculation

     iteration #  1     ecut=    30.00 Ry     beta=0.70
     Davidson diagonalization with overlap
     ethr =  1.00E-02,  avg # of iterations =  3.0

     Threshold (ethr) on eigenvalues was too large:
     Diagonalizing with lowered threshold

     Davidson diagonalization with overlap
     ethr =  4.17E-04,  avg # of iterations =  7.0

     negative rho (up, down):  8.750E-04 0.000E+00

     total energy              =    -329.37298308 Ry
     Harris-Foulkes estimate   =    -329.54295264 Ry
     estimated scf accuracy    <       0.28342944 Ry

[...]

     End of self-consistent calculation

          k = 0.0000 0.0000 0.0000 ( 22119 PWs)   bands (ev):

    -8.4889  -7.8428  -7.7170  -7.3676  -6.8870  -6.8169  -6.5650  -6.4507
    -6.3636  -6.0164  -5.8294  -5.7975  -5.7058  -5.6333  -5.4274  -5.4030
    -5.3287  -5.2244  -5.2037  -5.1885  -5.1314  -5.1013  -5.0020  -4.8874
    -4.8244  -4.6373  -4.4238  -3.8313  -2.5152  -2.0772  -0.5569  -0.2102
     0.5305   0.7729

     the Fermi energy is    -3.8217 ev

!    total energy              =    -329.48498842 Ry
     Harris-Foulkes estimate   =    -329.48498841 Ry
     estimated scf accuracy    <          7.1E-09 Ry

     The total energy is the sum of the following terms:

     one-electron contribution =    -610.15979471 Ry
     hartree contribution      =     326.53831995 Ry
     xc contribution           =     -51.42029978 Ry
     ewald contribution        =       5.55607247 Ry
     smearing contrib. (-TS)   =       0.00071365 Ry

     convergence has been achieved in  12 iterations

     Forces acting on atoms (Ry/au):

     atom    1 type  1   force =     0.01445685    0.00597536    0.01286170
     atom    2 type  1   force =    -0.03223676    0.00053955   -0.02089806
     atom    3 type  1   force =    -0.01298468   -0.00560395   -0.00614129
     atom    4 type  1   force =     0.02980778   -0.00179115    0.01558762
     atom    5 type  1   force =     0.00095681    0.00088018   -0.00140997

     Total force =     0.057118     Total SCF correction =     0.000343

     BFGS Geometry Optimization

     number of scf cycles    =   1
     number of bfgs steps    =   0

     energy   new            =    -329.4849884194 Ry

     new trust radius        =       0.0384217228 bohr
     new conv_thr            =       0.0000000100 Ry

ATOMIC_POSITIONS (bohr)
Au      -1.988728150   2.949802362  -0.675981302
Au      -0.693667762   4.577212554   4.207754942
Au       2.954604317   2.523204049   0.502826711
Au       4.122626781   3.895202850   5.405075624
Au       7.568736813   1.553019185   2.425920025

     Writing output data file pwscf.save
     Check: negative starting charge=   -0.006454
     NEW-OLD atomic charge density approx. for the potential
     Check: negative starting charge=   -0.006459

[...]

     energy   old            =    -329.4849884194 Ry
     energy   new            =    -329.4877101749 Ry

     CASE: energy  _new < energy  _old

[...]

     number of scf cycles    =  45
     number of bfgs steps    =  44

     energy   old            =    -329.4928774078 Ry
     energy   new            =    -329.4928925652 Ry

     CASE: energy  _new < energy  _old

     new trust radius        =       0.0108782460 bohr
     new conv_thr            =            1.0E-10 Ry

ATOMIC_POSITIONS (bohr)
Au      -1.894817919   3.089140828  -0.885518935
Au      -0.610861339   4.746529897   3.848173614
Au       2.855470226   2.230271119   0.625869255
Au       4.136412170   3.855778421   5.737605223
Au       7.477368861   1.576720735   2.539466843

     Writing output data file pwscf.save
     Check: negative starting charge=   -0.006379
     NEW-OLD atomic charge density approx. for the potential
     Check: negative starting charge=   -0.006381

     negative rho (up, down):  5.599E-06 0.000E+00

     Self-consistent Calculation

[...]

     Threshold (ethr) on eigenvalues was too large:
     Diagonalizing with lowered threshold

     Davidson diagonalization with overlap
     ethr =  3.51E-08,  avg # of iterations =  1.0

[...]

     total energy              =    -329.49290265 Ry
     Harris-Foulkes estimate   =    -329.49290267 Ry
     estimated scf accuracy    <          1.2E-10 Ry

     iteration # 10     ecut=    30.00 Ry     beta=0.70
     Davidson diagonalization with overlap
     ethr =  2.26E-13,  avg # of iterations =  2.0

     End of self-consistent calculation

          k = 0.0000 0.0000 0.0000 ( 22119 PWs)   bands (ev):

    -8.5052  -7.7740  -7.6468  -7.2230  -6.8614  -6.8108  -6.6037  -6.4785
    -6.2996  -6.0731  -5.9544  -5.7696  -5.7259  -5.6838  -5.4530  -5.3586
    -5.3148  -5.2447  -5.2035  -5.1822  -5.1656  -5.1237  -5.0026  -4.9278
    -4.8559  -4.7174  -4.4849  -3.7801  -2.4577  -2.1991  -0.5398  -0.1972
     0.4949   0.7901

     the Fermi energy is    -3.7472 ev

!    total energy              =    -329.49290265 Ry
     Harris-Foulkes estimate   =    -329.49290265 Ry
     estimated scf accuracy    <          9.0E-12 Ry

     The total energy is the sum of the following terms:

     one-electron contribution =    -607.04263026 Ry
     hartree contribution      =     324.95568664 Ry
     xc contribution           =     -51.39823727 Ry
     ewald contribution        =       3.99668328 Ry
     smearing contrib. (-TS)   =      -0.00440504 Ry

     convergence has been achieved in  10 iterations

     Forces acting on atoms (Ry/au):

     atom    1 type  1   force =     0.00027283    0.00011831    0.00062567
     atom    2 type  1   force =     0.00003030   -0.00029774   -0.00042331
     atom    3 type  1   force =    -0.00081939   -0.00035715   -0.00007864
     atom    4 type  1   force =     0.00016974    0.00071582   -0.00060501
     atom    5 type  1   force =     0.00034652   -0.00017925    0.00048129

     Total force =     0.001687     Total SCF correction =     0.000011

     bfgs converged in  46 scf cycles and  45 bfgs steps
     (criteria: energy <  1.0E-04, force <  1.0E-03)

     End of BFGS Geometry Optimization

     Final energy   =    -329.4929026539 Ry
Begin final coordinates

ATOMIC_POSITIONS (bohr)
Au      -1.894817919   3.089140828  -0.885518935
Au      -0.610861339   4.746529897   3.848173614
Au       2.855470226   2.230271119   0.625869255
Au       4.136412170   3.855778421   5.737605223
Au       7.477368861   1.576720735   2.539466843
End final coordinates

     Writing output data file pwscf.save

     General routines

     Parallel routines

   This run was terminated on:  19:25: 6   3Aug2017

   JOB DONE.