     Program PWSCF v.6.0 (svn rev. 13079) starts on  3Aug2017 at 12: 0:14

     Current dimensions of program PWSCF are:
     Max number of different atomic species (ntypx) = 10
     Max number of k-points (npk) =  40000
     Max angular momentum in pseudopotentials (lmaxx) =  3
     Message from routine iosys:
     pot_extrapolation='second-order' not available, using 'atomic'
     Message from routine iosys:
     wfc_extrapolation='second-order' not available, using 'atomic'

     Subspace diagonalization in iterative solution of the eigenvalue problem:
     a serial algorithm will be used

     bravais-lattice index     =            1
     lattice parameter (alat)  =      20.0000  a.u.
     unit-cell volume          =    8000.0000 (a.u.)^3
     number of atoms/cell      =            5
     number of atomic types    =            1
     number of electrons       =        55.00
     number of Kohn-Sham states=           34
     kinetic-energy cutoff     =      30.0000  Ry
     charge density cutoff     =     120.0000  Ry
     convergence threshold     =      1.0E-08
     mixing beta               =       0.7000
     number of iterations used =            8  plain     mixing
     Exchange-correlation      = BLYP ( 1  3  1  3 0 0)
     nstep                     =           50

     celldm(1)=  20.000000  celldm(2)=   0.000000  celldm(3)=   0.000000
     celldm(4)=   0.000000  celldm(5)=   0.000000  celldm(6)=   0.000000

     crystal axes: (cart. coord. in units of alat)
               a(1) = (   1.000000   0.000000   0.000000 )
               a(2) = (   0.000000   1.000000   0.000000 )
               a(3) = (   0.000000   0.000000   1.000000 )

     reciprocal axes: (cart. coord. in units 2 pi/alat)
               b(1) = (  1.000000  0.000000  0.000000 )
               b(2) = (  0.000000  1.000000  0.000000 )
               b(3) = (  0.000000  0.000000  1.000000 )

     PseudoPot. # 1 for Au read from file:
     ./Au.blyp-d-hgh.UPF
     MD5 check sum: c10d8bae01f806c36a1643a1c69a8479
     Pseudo is Norm-conserving, Zval = 11.0
     Generated in analytical, separable form
     Using radial grid of 1279 points,  6 beta functions with:
                l(1) =   0
                l(2) =   0
                l(3) =   1
                l(4) =   1
                l(5) =   2
                l(6) =   2

     atomic species   valence    mass     pseudopotential
        Au            11.00    28.08600     Au( 1.00)

     No symmetry found

   Cartesian axes

     site n.     atom                  positions (alat units)
         1           Au  tau(   1) = (  -0.0860295   0.0804463  -0.0479579  )
         2           Au  tau(   2) = (  -0.0358477   0.1717476   0.1873068  )
         3           Au  tau(   3) = (   0.1576340   0.0677282   0.0251342  )
         4           Au  tau(   4) = (   0.1993265   0.2088945   0.2753490  )
         5           Au  tau(   5) = (   0.3726949   0.0637884   0.1525507  )

     number of k points=     1  Marzari-Vanderbilt smearing, width (Ry)=  0.0250
                       cart. coord. in units 2pi/alat
        k(    1) = (   0.0000000   0.0000000   0.0000000), wk =   2.0000000

     Initial potential from superposition of free atoms
     Check: negative starting charge=   -0.006379

     starting charge   54.99940, renormalised to   55.00000

     negative rho (up, down):  6.379E-03 0.000E+00
     Starting wfc are   45 randomized atomic wfcs

     Self-consistent Calculation

     iteration #  1     ecut=    30.00 Ry     beta=0.70
     Davidson diagonalization with overlap
     ethr =  1.00E-02,  avg # of iterations =  3.0

     Threshold (ethr) on eigenvalues was too large:
     Diagonalizing with lowered threshold

     Davidson diagonalization with overlap
     ethr =  4.00E-04,  avg # of iterations =  5.0

     negative rho (up, down):  8.706E-04 0.000E+00

     total energy              =    -329.37850562 Ry
     Harris-Foulkes estimate   =    -329.54447300 Ry
     estimated scf accuracy    <       0.27628222 Ry

[...]

     End of self-consistent calculation

          k = 0.0000 0.0000 0.0000 ( 22119 PWs)   bands (ev):

    -8.3687  -7.6747  -7.6161  -7.1634  -7.0123  -6.7385  -6.6636  -6.4177
    -6.2604  -6.0194  -5.9678  -5.7267  -5.7036  -5.6460  -5.4400  -5.3473
    -5.2999  -5.2349  -5.1935  -5.1766  -5.1529  -5.1269  -4.9654  -4.9155
    -4.8620  -4.6334  -4.4159  -3.8101  -2.4581  -2.1880  -0.5087  -0.2115
     0.4643   0.7312

     the Fermi energy is    -3.7961 ev

!    total energy              =    -329.48836185 Ry
     Harris-Foulkes estimate   =    -329.48836190 Ry
     estimated scf accuracy    <          6.5E-09 Ry

     The total energy is the sum of the following terms:

     one-electron contribution =    -605.61673680 Ry
     hartree contribution      =     324.29512358 Ry
     xc contribution           =     -51.40511298 Ry
     ewald contribution        =       3.23862730 Ry
     smearing contrib. (-TS)   =      -0.00026295 Ry

     convergence has been achieved in  12 iterations

     Forces acting on atoms (Ry/au):

     atom    1 type  1   force =     0.00428084    0.00016492   -0.00098052
     atom    2 type  1   force =    -0.00383884   -0.00291117   -0.00981348
     atom    3 type  1   force =    -0.01457840    0.00538506    0.00860668
     atom    4 type  1   force =     0.00771737   -0.00441840   -0.00059378
     atom    5 type  1   force =     0.00641903    0.00177958    0.00278110

     Total force =     0.024207     Total SCF correction =     0.000262

     BFGS Geometry Optimization

     number of scf cycles    =   1
     number of bfgs steps    =   0

     energy   new            =    -329.4883618455 Ry

     new trust radius        =       0.0177652407 bohr
     new conv_thr            =       0.0000000100 Ry

ATOMIC_POSITIONS (bohr)
Au      -1.716309155   1.609091915  -0.960138521
Au      -0.720792837   3.432040833   3.736321515
Au       3.138102596   1.359949063   0.511290684
Au       3.994248369   4.173470603   5.506387218
Au       7.460318027   1.277546585   3.053794104

     Writing output data file pwscf.save
     Check: negative starting charge=   -0.006379
     NEW-OLD atomic charge density approx. for the potential
     Check: negative starting charge=   -0.006384

[...]

     energy   old            =    -329.4883618455 Ry
     energy   new            =    -329.4888799419 Ry

     CASE: energy  _new < energy  _old

[...]

     number of scf cycles    =  23
     number of bfgs steps    =  22

     energy   old            =    -329.4923486475 Ry
     energy   new            =    -329.4923675869 Ry

     CASE: energy  _new < energy  _old

     new trust radius        =       0.0046386257 bohr
     new conv_thr            =            1.0E-10 Ry

ATOMIC_POSITIONS (bohr)
Au      -1.590814419   1.584391049  -1.122092784
Au      -0.849509556   3.671691935   3.546383896
Au       3.083482612   1.276405333   0.810013804
Au       3.908623441   3.949209263   5.550405667
Au       7.603784923   1.370401420   3.062944417

     Writing output data file pwscf.save
     Check: negative starting charge=   -0.006342
     NEW-OLD atomic charge density approx. for the potential
     Check: negative starting charge=   -0.006344

     negative rho (up, down):  8.191E-08 0.000E+00

     Self-consistent Calculation

[...]

     Threshold (ethr) on eigenvalues was too large:
     Diagonalizing with lowered threshold

     Davidson diagonalization with overlap
     ethr =  9.20E-09,  avg # of iterations =  2.0

[...]

     total energy              =    -329.49237728 Ry
     Harris-Foulkes estimate   =    -329.49237729 Ry
     estimated scf accuracy    <          1.3E-10 Ry

     iteration #  9     ecut=    30.00 Ry     beta=0.70
     Davidson diagonalization with overlap
     ethr =  2.44E-13,  avg # of iterations =  2.0

     End of self-consistent calculation

          k = 0.0000 0.0000 0.0000 ( 22119 PWs)   bands (ev):

    -8.4994  -7.7807  -7.6594  -7.2430  -6.8777  -6.8045  -6.6228  -6.4854
    -6.3089  -6.0663  -5.9609  -5.7654  -5.7259  -5.6854  -5.4559  -5.3739
    -5.3155  -5.2444  -5.2017  -5.1856  -5.1679  -5.1217  -5.0037  -4.9276
    -4.8449  -4.7141  -4.4783  -3.7688  -2.4609  -2.2093  -0.5402  -0.1614
     0.4531   0.8175

     the Fermi energy is    -3.7352 ev

!    total energy              =    -329.49237726 Ry
     Harris-Foulkes estimate   =    -329.49237728 Ry
     estimated scf accuracy    <          2.9E-11 Ry

     The total energy is the sum of the following terms:

     one-electron contribution =    -607.67368630 Ry
     hartree contribution      =     325.26737640 Ry
     xc contribution           =     -51.40001960 Ry
     ewald contribution        =       4.31851785 Ry
     smearing contrib. (-TS)   =      -0.00456561 Ry

     convergence has been achieved in   9 iterations

     Forces acting on atoms (Ry/au):

     atom    1 type  1   force =     0.00005912   -0.00004531    0.00030483
     atom    2 type  1   force =     0.00056268    0.00061087   -0.00022425
     atom    3 type  1   force =    -0.00035767    0.00036557   -0.00011198
     atom    4 type  1   force =     0.00018161   -0.00025415    0.00060688
     atom    5 type  1   force =    -0.00044574   -0.00067698   -0.00057549

     Total force =     0.001602     Total SCF correction =     0.000020

     bfgs converged in  24 scf cycles and  23 bfgs steps
     (criteria: energy <  1.0E-04, force <  1.0E-03)

     End of BFGS Geometry Optimization

     Final energy   =    -329.4923772638 Ry
Begin final coordinates

ATOMIC_POSITIONS (bohr)
Au      -1.590814419   1.584391049  -1.122092784
Au      -0.849509556   3.671691935   3.546383896
Au       3.083482612   1.276405333   0.810013804
Au       3.908623441   3.949209263   5.550405667
Au       7.603784923   1.370401420   3.062944417
End final coordinates

     Writing output data file pwscf.save

     General routines

     Parallel routines

   This run was terminated on:  12: 1:32   3Aug2017

   JOB DONE.