     Program PWSCF v.6.0 (svn rev. 13079) starts on  4Aug2017 at  4:38:43

     Current dimensions of program PWSCF are:
     Max number of different atomic species (ntypx) = 10
     Max number of k-points (npk) =  40000
     Max angular momentum in pseudopotentials (lmaxx) =  3
     Message from routine iosys:
     pot_extrapolation='second-order' not available, using 'atomic'
     Message from routine iosys:
     wfc_extrapolation='second-order' not available, using 'atomic'

     Subspace diagonalization in iterative solution of the eigenvalue problem:
     a serial algorithm will be used

     bravais-lattice index     =            1
     lattice parameter (alat)  =      20.0000  a.u.
     unit-cell volume          =    8000.0000 (a.u.)^3
     number of atoms/cell      =            5
     number of atomic types    =            1
     number of electrons       =        55.00
     number of Kohn-Sham states=           34
     kinetic-energy cutoff     =      30.0000  Ry
     charge density cutoff     =     120.0000  Ry
     convergence threshold     =      1.0E-08
     mixing beta               =       0.7000
     number of iterations used =            8  plain     mixing
     Exchange-correlation      = BLYP ( 1  3  1  3 0 0)
     nstep                     =           50

     celldm(1)=  20.000000  celldm(2)=   0.000000  celldm(3)=   0.000000
     celldm(4)=   0.000000  celldm(5)=   0.000000  celldm(6)=   0.000000

     crystal axes: (cart. coord. in units of alat)
               a(1) = (   1.000000   0.000000   0.000000 )
               a(2) = (   0.000000   1.000000   0.000000 )
               a(3) = (   0.000000   0.000000   1.000000 )

     reciprocal axes: (cart. coord. in units 2 pi/alat)
               b(1) = (  1.000000  0.000000  0.000000 )
               b(2) = (  0.000000  1.000000  0.000000 )
               b(3) = (  0.000000  0.000000  1.000000 )

     PseudoPot. # 1 for Au read from file:
     ./Au.blyp-d-hgh.UPF
     MD5 check sum: c10d8bae01f806c36a1643a1c69a8479
     Pseudo is Norm-conserving, Zval = 11.0
     Generated in analytical, separable form
     Using radial grid of 1279 points,  6 beta functions with:
                l(1) =   0
                l(2) =   0
                l(3) =   1
                l(4) =   1
                l(5) =   2
                l(6) =   2

     atomic species   valence    mass     pseudopotential
        Au            11.00    28.08600     Au( 1.00)

     No symmetry found

   Cartesian axes

     site n.     atom                  positions (alat units)
         1           Au  tau(   1) = (  -0.0226373   0.0243926  -0.0078624  )
         2           Au  tau(   2) = (  -0.0050701   0.1510871   0.1872453  )
         3           Au  tau(   3) = (   0.1499023   0.1267424  -0.0087693  )
         4           Au  tau(   4) = (   0.2255571   0.2336902   0.2807439  )
         5           Au  tau(   5) = (   0.2808601   0.0225178   0.1536460  )

     number of k points=     1  Marzari-Vanderbilt smearing, width (Ry)=  0.0250
                       cart. coord. in units 2pi/alat
        k(    1) = (   0.0000000   0.0000000   0.0000000), wk =   2.0000000

     Initial potential from superposition of free atoms
     Check: negative starting charge=   -0.006549

     starting charge   54.99940, renormalised to   55.00000

     negative rho (up, down):  6.549E-03 0.000E+00
     Starting wfc are   45 randomized atomic wfcs

     Self-consistent Calculation

     iteration #  1     ecut=    30.00 Ry     beta=0.70
     Davidson diagonalization with overlap
     ethr =  1.00E-02,  avg # of iterations =  4.0

     Threshold (ethr) on eigenvalues was too large:
     Diagonalizing with lowered threshold

     Davidson diagonalization with overlap
     ethr =  8.15E-04,  avg # of iterations =  1.0

     negative rho (up, down):  7.152E-04 0.000E+00

     total energy              =    -328.93694601 Ry
     Harris-Foulkes estimate   =    -329.26226093 Ry
     estimated scf accuracy    <       0.48511720 Ry

[...]

     End of self-consistent calculation

          k = 0.0000 0.0000 0.0000 ( 22119 PWs)   bands (ev):

   -10.2022  -9.3999  -8.7979  -8.5061  -7.8770  -7.6806  -7.2040  -6.9579
    -6.7558  -6.5471  -6.2708  -6.0615  -5.9359  -5.6772  -5.4924  -5.3736
    -5.2831  -5.1658  -5.1474  -5.0480  -4.9672  -4.9481  -4.7858  -4.6896
    -4.4148  -4.2128  -3.8497  -3.4301  -2.4142  -2.0518  -0.3312  -0.0877
     0.3090   0.7235

     the Fermi energy is    -3.4284 ev

!    total energy              =    -329.18139064 Ry
     Harris-Foulkes estimate   =    -329.18139062 Ry
     estimated scf accuracy    <          5.9E-09 Ry

     The total energy is the sum of the following terms:

     one-electron contribution =    -672.44207665 Ry
     hartree contribution      =     357.32116764 Ry
     xc contribution           =     -51.72589180 Ry
     ewald contribution        =      37.66313347 Ry
     smearing contrib. (-TS)   =       0.00227671 Ry

     convergence has been achieved in  13 iterations

     Forces acting on atoms (Ry/au):

     atom    1 type  1   force =    -0.53428678   -0.35347137   -0.09379141
     atom    2 type  1   force =    -0.01664006    0.06621274    0.12955379
     atom    3 type  1   force =     0.48507878    0.32668013   -0.11441905
     atom    4 type  1   force =    -0.01004678    0.00657852    0.01018831
     atom    5 type  1   force =     0.07589484   -0.04600001    0.06846836

     Total force =     0.899206     Total SCF correction =     0.000360

     BFGS Geometry Optimization

     number of scf cycles    =   1
     number of bfgs steps    =   0

     energy   new            =    -329.1813906397 Ry

     new trust radius        =       0.5000000000 bohr
     new conv_thr            =       0.0000000100 Ry

ATOMIC_POSITIONS (bohr)
Au      -0.865349751   0.214884212  -0.229679556
Au      -0.114253310   3.072874886   3.844954107
Au       3.372648798   2.787127209  -0.263746282
Au       4.503382361   4.678885270   5.622744941
Au       5.675812902   0.414832422   3.125794790

     Writing output data file pwscf.save
     Check: negative starting charge=   -0.006549
     NEW-OLD atomic charge density approx. for the potential
     Check: negative starting charge=   -0.006129

[...]

     energy   old            =    -329.1813906397 Ry
     energy   new            =    -329.4232931851 Ry

     CASE: energy  _new < energy  _old

[...]

     WARNING: bfgs curvature condition failed, Theta= 0.953
     new trust radius        =       0.0094337325 bohr
     new conv_thr            =            1.0E-10 Ry

[...]

     WARNING: bfgs curvature condition failed, Theta= 0.616
     uphill step: resetting bfgs history

[...]

     new trust radius        =       0.0127722330 bohr
     new conv_thr            =       0.0000000004 Ry

[...]

     Self-consistent Calculation

[...]

     Threshold (ethr) on eigenvalues was too large:
     Diagonalizing with lowered threshold

     Davidson diagonalization with overlap
     ethr =  3.85E-08,  avg # of iterations =  1.0

[...]

     total energy              =    -329.49244339 Ry
     Harris-Foulkes estimate   =    -329.49244341 Ry
     estimated scf accuracy    <          8.6E-10 Ry

     iteration #  9     ecut=    30.00 Ry     beta=0.70
     Davidson diagonalization with overlap
     ethr =  1.57E-12,  avg # of iterations =  2.0

     End of self-consistent calculation

          k = 0.0000 0.0000 0.0000 ( 22119 PWs)   bands (ev):

    -8.5125  -7.7794  -7.6801  -7.2366  -6.8530  -6.7990  -6.5715  -6.5002
    -6.2998  -6.0793  -5.9265  -5.7549  -5.7138  -5.6745  -5.4690  -5.3586
    -5.3055  -5.2488  -5.1959  -5.1739  -5.1675  -5.1106  -4.9964  -4.9384
    -4.8546  -4.6869  -4.5078  -3.7424  -2.4008  -2.2361  -0.5221  -0.1859
     0.3889   0.7115

     the Fermi energy is    -3.7037 ev

!    total energy              =    -329.49244336 Ry
     Harris-Foulkes estimate   =    -329.49244339 Ry
     estimated scf accuracy    <          1.1E-10 Ry

     The total energy is the sum of the following terms:

     one-electron contribution =    -604.15841177 Ry
     hartree contribution      =     323.51776699 Ry
     xc contribution           =     -51.39606717 Ry
     ewald contribution        =       2.55004049 Ry
     smearing contrib. (-TS)   =      -0.00577189 Ry

     convergence has been achieved in   9 iterations

     Forces acting on atoms (Ry/au):

     atom    1 type  1   force =    -0.00093660    0.00138059    0.00064283
     atom    2 type  1   force =    -0.00326331    0.00220324    0.00531936
     atom    3 type  1   force =     0.00488593   -0.00263413   -0.00405327
     atom    4 type  1   force =     0.00174593   -0.00104108   -0.00503532
     atom    5 type  1   force =    -0.00243196    0.00009138    0.00312639

     Total force =     0.011808     Total SCF correction =     0.000043

     number of scf cycles    =  50
     number of bfgs steps    =  49

     energy   old            =    -329.4922475411 Ry
     energy   new            =    -329.4924433638 Ry

     CASE: energy  _new < energy  _old

     WARNING: bfgs curvature condition failed, Theta= 0.977
     new trust radius        =       0.0140494563 bohr
     new conv_thr            =       0.0000000002 Ry

ATOMIC_POSITIONS (bohr)
Au      -1.904977886   1.273653087  -0.549023332
Au       0.942218427   3.089777262   3.235859985
Au       3.126851075   0.129272711  -0.544179799
Au       4.052296473   4.586196969   6.940856386
Au       6.355852911   2.089703972   3.016554761

     Writing output data file pwscf.save
     Check: negative starting charge=   -0.006250
     NEW-OLD atomic charge density approx. for the potential
     Check: negative starting charge=   -0.006247

     negative rho (up, down):  2.330E-05 0.000E+00

     Writing output data file pwscf.save

     General routines

     Parallel routines

   This run was terminated on:   4:41: 5   4Aug2017

   JOB DONE.