     Program PWSCF v.6.0 (svn rev. 13079) starts on  3Aug2017 at 10:52:32

     Current dimensions of program PWSCF are:
     Max number of different atomic species (ntypx) = 10
     Max number of k-points (npk) =  40000
     Max angular momentum in pseudopotentials (lmaxx) =  3
     Message from routine iosys:
     pot_extrapolation='second-order' not available, using 'atomic'
     Message from routine iosys:
     wfc_extrapolation='second-order' not available, using 'atomic'

     Subspace diagonalization in iterative solution of the eigenvalue problem:
     a serial algorithm will be used

     bravais-lattice index     =            1
     lattice parameter (alat)  =      20.0000  a.u.
     unit-cell volume          =    8000.0000 (a.u.)^3
     number of atoms/cell      =            5
     number of atomic types    =            1
     number of electrons       =        55.00
     number of Kohn-Sham states=           34
     kinetic-energy cutoff     =      30.0000  Ry
     charge density cutoff     =     120.0000  Ry
     convergence threshold     =      1.0E-08
     mixing beta               =       0.7000
     number of iterations used =            8  plain     mixing
     Exchange-correlation      = BLYP ( 1  3  1  3 0 0)
     nstep                     =           50

     celldm(1)=  20.000000  celldm(2)=   0.000000  celldm(3)=   0.000000
     celldm(4)=   0.000000  celldm(5)=   0.000000  celldm(6)=   0.000000

     crystal axes: (cart. coord. in units of alat)
               a(1) = (   1.000000   0.000000   0.000000 )
               a(2) = (   0.000000   1.000000   0.000000 )
               a(3) = (   0.000000   0.000000   1.000000 )

     reciprocal axes: (cart. coord. in units 2 pi/alat)
               b(1) = (  1.000000  0.000000  0.000000 )
               b(2) = (  0.000000  1.000000  0.000000 )
               b(3) = (  0.000000  0.000000  1.000000 )

     PseudoPot. # 1 for Au read from file:
     ./Au.blyp-d-hgh.UPF
     MD5 check sum: c10d8bae01f806c36a1643a1c69a8479
     Pseudo is Norm-conserving, Zval = 11.0
     Generated in analytical, separable form
     Using radial grid of 1279 points,  6 beta functions with:
                l(1) =   0
                l(2) =   0
                l(3) =   1
                l(4) =   1
                l(5) =   2
                l(6) =   2

     atomic species   valence    mass     pseudopotential
        Au            11.00    28.08600     Au( 1.00)

     No symmetry found

   Cartesian axes

     site n.     atom                  positions (alat units)
         1           Au  tau(   1) = (  -0.0761573   0.1251569  -0.0558587  )
         2           Au  tau(   2) = (  -0.0482218   0.1945877   0.1808704  )
         3           Au  tau(   3) = (   0.1559243   0.0805740   0.0303104  )
         4           Au  tau(   4) = (   0.1976768   0.1855695   0.2864575  )
         5           Au  tau(   5) = (   0.3714655   0.0648337   0.1590544  )

     number of k points=     1  Marzari-Vanderbilt smearing, width (Ry)=  0.0250
                       cart. coord. in units 2pi/alat
        k(    1) = (   0.0000000   0.0000000   0.0000000), wk =   2.0000000

     Initial potential from superposition of free atoms
     Check: negative starting charge=   -0.006313

     starting charge   54.99940, renormalised to   55.00000

     negative rho (up, down):  6.313E-03 0.000E+00
     Starting wfc are   45 randomized atomic wfcs

     Self-consistent Calculation

     iteration #  1     ecut=    30.00 Ry     beta=0.70
     Davidson diagonalization with overlap
     ethr =  1.00E-02,  avg # of iterations =  3.0

     Threshold (ethr) on eigenvalues was too large:
     Diagonalizing with lowered threshold

     Davidson diagonalization with overlap
     ethr =  4.19E-04,  avg # of iterations =  5.0

     negative rho (up, down):  8.597E-04 0.000E+00

     total energy              =    -329.37156233 Ry
     Harris-Foulkes estimate   =    -329.54599362 Ry
     estimated scf accuracy    <       0.28780766 Ry

[...]

     End of self-consistent calculation

          k = 0.0000 0.0000 0.0000 ( 22119 PWs)   bands (ev):

    -8.4913  -7.8804  -7.6375  -7.1527  -6.9257  -6.8980  -6.8221  -6.5458
    -6.2056  -6.1691  -6.0464  -5.7583  -5.7423  -5.6649  -5.4171  -5.3495
    -5.2935  -5.2630  -5.2164  -5.1550  -5.1544  -5.1303  -5.0063  -4.9121
    -4.9038  -4.6536  -4.4526  -3.6920  -2.4686  -2.2012  -0.5293  -0.1737
     0.4511   0.7313

     the Fermi energy is    -3.6533 ev

!    total energy              =    -329.48579235 Ry
     Harris-Foulkes estimate   =    -329.48579240 Ry
     estimated scf accuracy    <          7.9E-09 Ry

     The total energy is the sum of the following terms:

     one-electron contribution =    -608.79717120 Ry
     hartree contribution      =     325.81854605 Ry
     xc contribution           =     -51.41465731 Ry
     ewald contribution        =       4.91328662 Ry
     smearing contrib. (-TS)   =      -0.00579651 Ry

     convergence has been achieved in  11 iterations

     Forces acting on atoms (Ry/au):

     atom    1 type  1   force =    -0.00561326   -0.00689637   -0.02270830
     atom    2 type  1   force =     0.01660764    0.00598217    0.02217638
     atom    3 type  1   force =    -0.00310398    0.00437330    0.00569761
     atom    4 type  1   force =    -0.02955184    0.00871276    0.00695976
     atom    5 type  1   force =     0.02166144   -0.01217186   -0.01212546

     Total force =     0.056757     Total SCF correction =     0.000416

     BFGS Geometry Optimization

     number of scf cycles    =   1
     number of bfgs steps    =   0

     energy   new            =    -329.4857923466 Ry

     new trust radius        =       0.0315857793 bohr
     new conv_thr            =       0.0000000100 Ry

ATOMIC_POSITIONS (bohr)
Au      -1.528759260   2.496240633  -1.139883297
Au      -0.947827364   3.897736169   3.639583383
Au       3.115382019   1.615853302   0.611906608
Au       3.923984164   3.720102757   5.736109764
Au       7.450971441   1.284502139   3.168961543

     Writing output data file pwscf.save
     Check: negative starting charge=   -0.006313
     NEW-OLD atomic charge density approx. for the potential
     Check: negative starting charge=   -0.006283

[...]

     energy   old            =    -329.4857923466 Ry
     energy   new            =    -329.4885066516 Ry

     CASE: energy  _new < energy  _old

[...]

     WARNING: bfgs curvature condition failed, Theta= 0.632
     new trust radius        =       0.0316885203 bohr
     new conv_thr            =            1.0E-10 Ry

[...]

     WARNING: info=  6 for Hessian
     uphill step: resetting bfgs history

[...]

     CASE: energy  _new > energy  _old

[...]

     WARNING: bfgs curvature condition failed, Theta= 0.910
     new trust radius        =       0.0033597235 bohr
     new conv_thr            =            1.0E-10 Ry

[...]

     number of scf cycles    =  33
     number of bfgs steps    =  31

     energy   old            =    -329.4934199430 Ry
     energy   new            =    -329.4934382320 Ry

     CASE: energy  _new < energy  _old

     new trust radius        =       0.0075593780 bohr
     new conv_thr            =            1.0E-10 Ry

ATOMIC_POSITIONS (bohr)
Au      -1.605937156   2.443960965  -1.138634335
Au      -0.790471884   4.244918421   3.625852185
Au       3.027536877   1.650395410   0.742999811
Au       3.872949604   3.553143756   5.762990147
Au       7.509673559   1.122016448   3.023470191

     Writing output data file pwscf.save
     Check: negative starting charge=   -0.006372
     NEW-OLD atomic charge density approx. for the potential
     Check: negative starting charge=   -0.006372

     negative rho (up, down):  1.575E-06 0.000E+00

     Self-consistent Calculation

[...]

     Threshold (ethr) on eigenvalues was too large:
     Diagonalizing with lowered threshold

     Davidson diagonalization with overlap
     ethr =  1.59E-08,  avg # of iterations =  2.0

[...]

     total energy              =    -329.49345950 Ry
     Harris-Foulkes estimate   =    -329.49345948 Ry
     estimated scf accuracy    <          2.6E-10 Ry

     iteration #  9     ecut=    30.00 Ry     beta=0.70
     Davidson diagonalization with overlap
     ethr =  4.75E-13,  avg # of iterations =  2.0

     End of self-consistent calculation

          k = 0.0000 0.0000 0.0000 ( 22119 PWs)   bands (ev):

    -8.4911  -7.7701  -7.6461  -7.2342  -6.8513  -6.8026  -6.6183  -6.4720
    -6.3099  -6.0660  -5.9530  -5.7663  -5.7237  -5.6827  -5.4585  -5.3567
    -5.3137  -5.2455  -5.2008  -5.1784  -5.1724  -5.1219  -5.0084  -4.9216
    -4.8358  -4.7398  -4.4772  -3.7729  -2.4519  -2.1980  -0.5348  -0.1803
     0.4691   0.7979

     the Fermi energy is    -3.7397 ev

!    total energy              =    -329.49345950 Ry
     Harris-Foulkes estimate   =    -329.49345950 Ry
     estimated scf accuracy    <          4.0E-11 Ry

     The total energy is the sum of the following terms:

     one-electron contribution =    -606.53542984 Ry
     hartree contribution      =     324.70390816 Ry
     xc contribution           =     -51.39755564 Ry
     ewald contribution        =       3.74012688 Ry
     smearing contrib. (-TS)   =      -0.00450907 Ry

     convergence has been achieved in   9 iterations

     Forces acting on atoms (Ry/au):

     atom    1 type  1   force =     0.00023176    0.00000471    0.00003649
     atom    2 type  1   force =     0.00029843   -0.00003765   -0.00067252
     atom    3 type  1   force =    -0.00031801    0.00052186    0.00097735
     atom    4 type  1   force =     0.00063119    0.00029871    0.00033948
     atom    5 type  1   force =    -0.00084337   -0.00078763   -0.00068080

     Total force =     0.002080     Total SCF correction =     0.000024

     bfgs converged in  34 scf cycles and  32 bfgs steps
     (criteria: energy <  1.0E-04, force <  1.0E-03)

     End of BFGS Geometry Optimization

     Final energy   =    -329.4934595009 Ry
Begin final coordinates

ATOMIC_POSITIONS (bohr)
Au      -1.605937156   2.443960965  -1.138634335
Au      -0.790471884   4.244918421   3.625852185
Au       3.027536877   1.650395410   0.742999811
Au       3.872949604   3.553143756   5.762990147
Au       7.509673559   1.122016448   3.023470191
End final coordinates

     Writing output data file pwscf.save

     General routines

     Parallel routines

   This run was terminated on:  10:54: 7   3Aug2017

   JOB DONE.