     Program PWSCF v.6.0 (svn rev. 13079) starts on  3Aug2017 at 15:48:12

     Current dimensions of program PWSCF are:
     Max number of different atomic species (ntypx) = 10
     Max number of k-points (npk) =  40000
     Max angular momentum in pseudopotentials (lmaxx) =  3
     Message from routine iosys:
     pot_extrapolation='second-order' not available, using 'atomic'
     Message from routine iosys:
     wfc_extrapolation='second-order' not available, using 'atomic'

     Subspace diagonalization in iterative solution of the eigenvalue problem:
     a serial algorithm will be used

     bravais-lattice index     =            1
     lattice parameter (alat)  =      20.0000  a.u.
     unit-cell volume          =    8000.0000 (a.u.)^3
     number of atoms/cell      =            5
     number of atomic types    =            1
     number of electrons       =        55.00
     number of Kohn-Sham states=           34
     kinetic-energy cutoff     =      30.0000  Ry
     charge density cutoff     =     120.0000  Ry
     convergence threshold     =      1.0E-08
     mixing beta               =       0.7000
     number of iterations used =            8  plain     mixing
     Exchange-correlation      = BLYP ( 1  3  1  3 0 0)
     nstep                     =           50

     celldm(1)=  20.000000  celldm(2)=   0.000000  celldm(3)=   0.000000
     celldm(4)=   0.000000  celldm(5)=   0.000000  celldm(6)=   0.000000

     crystal axes: (cart. coord. in units of alat)
               a(1) = (   1.000000   0.000000   0.000000 )
               a(2) = (   0.000000   1.000000   0.000000 )
               a(3) = (   0.000000   0.000000   1.000000 )

     reciprocal axes: (cart. coord. in units 2 pi/alat)
               b(1) = (  1.000000  0.000000  0.000000 )
               b(2) = (  0.000000  1.000000  0.000000 )
               b(3) = (  0.000000  0.000000  1.000000 )

     PseudoPot. # 1 for Au read from file:
     ./Au.blyp-d-hgh.UPF
     MD5 check sum: c10d8bae01f806c36a1643a1c69a8479
     Pseudo is Norm-conserving, Zval = 11.0
     Generated in analytical, separable form
     Using radial grid of 1279 points,  6 beta functions with:
                l(1) =   0
                l(2) =   0
                l(3) =   1
                l(4) =   1
                l(5) =   2
                l(6) =   2

     atomic species   valence    mass     pseudopotential
        Au            11.00    28.08600     Au( 1.00)

     No symmetry found

   Cartesian axes

     site n.     atom                  positions (alat units)
         1           Au  tau(   1) = (  -0.0911433   0.1035265  -0.0376159  )
         2           Au  tau(   2) = (  -0.0396732   0.1476924   0.2076964  )
         3           Au  tau(   3) = (   0.1523719   0.0830210   0.0208364  )
         4           Au  tau(   4) = (   0.1999056   0.1699408   0.2901423  )
         5           Au  tau(   5) = (   0.3787301   0.0830916   0.1294006  )

     number of k points=     1  Marzari-Vanderbilt smearing, width (Ry)=  0.0250
                       cart. coord. in units 2pi/alat
        k(    1) = (   0.0000000   0.0000000   0.0000000), wk =   2.0000000

     Initial potential from superposition of free atoms
     Check: negative starting charge=   -0.006484

     starting charge   54.99940, renormalised to   55.00000

     negative rho (up, down):  6.484E-03 0.000E+00
     Starting wfc are   45 randomized atomic wfcs

     Self-consistent Calculation

     iteration #  1     ecut=    30.00 Ry     beta=0.70
     Davidson diagonalization with overlap
     ethr =  1.00E-02,  avg # of iterations =  3.0

     Threshold (ethr) on eigenvalues was too large:
     Diagonalizing with lowered threshold

     Davidson diagonalization with overlap
     ethr =  4.04E-04,  avg # of iterations =  3.0

     negative rho (up, down):  9.027E-04 0.000E+00

     total energy              =    -329.37786256 Ry
     Harris-Foulkes estimate   =    -329.54543531 Ry
     estimated scf accuracy    <       0.27859197 Ry

[...]

     End of self-consistent calculation

          k = 0.0000 0.0000 0.0000 ( 22119 PWs)   bands (ev):

    -8.4306  -7.7292  -7.6455  -7.1811  -6.9938  -6.7805  -6.7130  -6.4460
    -6.2848  -6.0391  -5.9975  -5.7656  -5.7184  -5.6720  -5.4214  -5.3359
    -5.3186  -5.2217  -5.1867  -5.1763  -5.1666  -5.1383  -4.9737  -4.8934
    -4.8493  -4.6808  -4.3911  -3.8079  -2.4858  -2.1593  -0.5506  -0.2522
     0.5008   0.8687

     the Fermi energy is    -3.7950 ev

!    total energy              =    -329.48818265 Ry
     Harris-Foulkes estimate   =    -329.48818270 Ry
     estimated scf accuracy    <          3.4E-09 Ry

     The total energy is the sum of the following terms:

     one-electron contribution =    -609.93324413 Ry
     hartree contribution      =     326.43268829 Ry
     xc contribution           =     -51.41798997 Ry
     ewald contribution        =       5.43059305 Ry
     smearing contrib. (-TS)   =      -0.00022989 Ry

     convergence has been achieved in  13 iterations

     Forces acting on atoms (Ry/au):

     atom    1 type  1   force =    -0.00591199   -0.00200783   -0.00938334
     atom    2 type  1   force =    -0.00316498    0.00113855   -0.00191284
     atom    3 type  1   force =    -0.00172657    0.00459805    0.01253666
     atom    4 type  1   force =     0.00660323   -0.00293544   -0.00014955
     atom    5 type  1   force =     0.00420031   -0.00079334   -0.00109092

     Total force =     0.019875     Total SCF correction =     0.000268

     BFGS Geometry Optimization

     number of scf cycles    =   1
     number of bfgs steps    =   0

     energy   new            =    -329.4881826510 Ry

     new trust radius        =       0.0134644316 bohr
     new conv_thr            =       0.0000000100 Ry

ATOMIC_POSITIONS (bohr)
Au      -1.828777993   2.068522169  -0.761701343
Au      -0.796628976   2.954985552   4.152014161
Au       3.045710429   1.665019054   0.429263657
Au       4.004715228   3.395879563   5.802697447
Au       7.578801313   1.661037661   2.586920078

     Writing output data file pwscf.save
     Check: negative starting charge=   -0.006484
     NEW-OLD atomic charge density approx. for the potential
     Check: negative starting charge=   -0.006482

[...]

     energy   old            =    -329.4881826510 Ry
     energy   new            =    -329.4885605199 Ry

     CASE: energy  _new < energy  _old

     WARNING: bfgs curvature condition failed, Theta= 0.880
     new trust radius        =       0.0148108747 bohr
     new conv_thr            =       0.0000000004 Ry

[...]

     number of scf cycles    =  17
     number of bfgs steps    =  16

     energy   old            =    -329.4911967309 Ry
     energy   new            =    -329.4912202947 Ry

     CASE: energy  _new < energy  _old

     new trust radius        =       0.0040795743 bohr
     new conv_thr            =            1.0E-10 Ry

ATOMIC_POSITIONS (bohr)
Au      -1.854273512   1.936453217  -0.828123901
Au      -0.839464523   3.117128342   4.105250701
Au       2.992243625   1.719879864   0.605254850
Au       4.049666849   3.290327995   5.814453713
Au       7.655647561   1.681654583   2.512358638

     Writing output data file pwscf.save
     Check: negative starting charge=   -0.006518
     NEW-OLD atomic charge density approx. for the potential
     Check: negative starting charge=   -0.006517

     negative rho (up, down):  1.645E-07 0.000E+00

     Self-consistent Calculation

[...]

     Threshold (ethr) on eigenvalues was too large:
     Diagonalizing with lowered threshold

     Davidson diagonalization with overlap
     ethr =  8.24E-09,  avg # of iterations =  2.0

[...]

     total energy              =    -329.49123156 Ry
     Harris-Foulkes estimate   =    -329.49123156 Ry
     estimated scf accuracy    <          8.7E-10 Ry

     iteration #  8     ecut=    30.00 Ry     beta=0.70
     Davidson diagonalization with overlap
     ethr =  1.59E-12,  avg # of iterations =  2.0

     End of self-consistent calculation

          k = 0.0000 0.0000 0.0000 ( 22119 PWs)   bands (ev):

    -8.4985  -7.7719  -7.6378  -7.2229  -6.8784  -6.8124  -6.6167  -6.4734
    -6.3006  -6.0686  -5.9697  -5.7673  -5.7314  -5.6839  -5.4469  -5.3757
    -5.3184  -5.2424  -5.2010  -5.1933  -5.1704  -5.1315  -4.9972  -4.9243
    -4.8665  -4.7160  -4.4788  -3.7831  -2.4952  -2.2118  -0.5685  -0.2108
     0.4815   0.8980

     the Fermi energy is    -3.7513 ev

!    total energy              =    -329.49123153 Ry
     Harris-Foulkes estimate   =    -329.49123156 Ry
     estimated scf accuracy    <          9.8E-11 Ry

     The total energy is the sum of the following terms:

     one-electron contribution =    -609.01481452 Ry
     hartree contribution      =     325.93924666 Ry
     xc contribution           =     -51.40052952 Ry
     ewald contribution        =       4.98902191 Ry
     smearing contrib. (-TS)   =      -0.00415605 Ry

     convergence has been achieved in   8 iterations

     Forces acting on atoms (Ry/au):

     atom    1 type  1   force =    -0.00002407   -0.00000098   -0.00003029
     atom    2 type  1   force =     0.00081880    0.00036972   -0.00034224
     atom    3 type  1   force =    -0.00030973   -0.00028561    0.00078482
     atom    4 type  1   force =    -0.00085632    0.00047283   -0.00062127
     atom    5 type  1   force =     0.00037132   -0.00055596    0.00020898

     Total force =     0.001885     Total SCF correction =     0.000041

     bfgs converged in  18 scf cycles and  17 bfgs steps
     (criteria: energy <  1.0E-04, force <  1.0E-03)

     End of BFGS Geometry Optimization

     Final energy   =    -329.4912315337 Ry
Begin final coordinates

ATOMIC_POSITIONS (bohr)
Au      -1.854273512   1.936453217  -0.828123901
Au      -0.839464523   3.117128342   4.105250701
Au       2.992243625   1.719879864   0.605254850
Au       4.049666849   3.290327995   5.814453713
Au       7.655647561   1.681654583   2.512358638
End final coordinates

     Writing output data file pwscf.save

     General routines

     Parallel routines

   This run was terminated on:  15:49: 4   3Aug2017

   JOB DONE.