     Program PWSCF v.6.0 (svn rev. 13079) starts on  4Aug2017 at  0:46:11

     Current dimensions of program PWSCF are:
     Max number of different atomic species (ntypx) = 10
     Max number of k-points (npk) =  40000
     Max angular momentum in pseudopotentials (lmaxx) =  3
     Message from routine iosys:
     pot_extrapolation='second-order' not available, using 'atomic'
     Message from routine iosys:
     wfc_extrapolation='second-order' not available, using 'atomic'

     Subspace diagonalization in iterative solution of the eigenvalue problem:
     a serial algorithm will be used

     bravais-lattice index     =            1
     lattice parameter (alat)  =      20.0000  a.u.
     unit-cell volume          =    8000.0000 (a.u.)^3
     number of atoms/cell      =            5
     number of atomic types    =            1
     number of electrons       =        55.00
     number of Kohn-Sham states=           34
     kinetic-energy cutoff     =      30.0000  Ry
     charge density cutoff     =     120.0000  Ry
     convergence threshold     =      1.0E-08
     mixing beta               =       0.7000
     number of iterations used =            8  plain     mixing
     Exchange-correlation      = BLYP ( 1  3  1  3 0 0)
     nstep                     =           50

     celldm(1)=  20.000000  celldm(2)=   0.000000  celldm(3)=   0.000000
     celldm(4)=   0.000000  celldm(5)=   0.000000  celldm(6)=   0.000000

     crystal axes: (cart. coord. in units of alat)
               a(1) = (   1.000000   0.000000   0.000000 )
               a(2) = (   0.000000   1.000000   0.000000 )
               a(3) = (   0.000000   0.000000   1.000000 )

     reciprocal axes: (cart. coord. in units 2 pi/alat)
               b(1) = (  1.000000  0.000000  0.000000 )
               b(2) = (  0.000000  1.000000  0.000000 )
               b(3) = (  0.000000  0.000000  1.000000 )

     PseudoPot. # 1 for Au read from file:
     ./Au.blyp-d-hgh.UPF
     MD5 check sum: c10d8bae01f806c36a1643a1c69a8479
     Pseudo is Norm-conserving, Zval = 11.0
     Generated in analytical, separable form
     Using radial grid of 1279 points,  6 beta functions with:
                l(1) =   0
                l(2) =   0
                l(3) =   1
                l(4) =   1
                l(5) =   2
                l(6) =   2

     atomic species   valence    mass     pseudopotential
        Au            11.00    28.08600     Au( 1.00)

     No symmetry found

   Cartesian axes

     site n.     atom                  positions (alat units)
         1           Au  tau(   1) = (  -0.1054753   0.1406545  -0.0273307  )
         2           Au  tau(   2) = (  -0.0008672   0.1476759   0.2055247  )
         3           Au  tau(   3) = (   0.1423679   0.1032514   0.0037343  )
         4           Au  tau(   4) = (   0.2252515   0.2020560   0.3011280  )
         5           Au  tau(   5) = (   0.3529215   0.0609097   0.1228954  )

     number of k points=     1  Marzari-Vanderbilt smearing, width (Ry)=  0.0250
                       cart. coord. in units 2pi/alat
        k(    1) = (   0.0000000   0.0000000   0.0000000), wk =   2.0000000

     Initial potential from superposition of free atoms
     Check: negative starting charge=   -0.006406

     starting charge   54.99940, renormalised to   55.00000

     negative rho (up, down):  6.406E-03 0.000E+00
     Starting wfc are   45 randomized atomic wfcs

     Self-consistent Calculation

     iteration #  1     ecut=    30.00 Ry     beta=0.70
     Davidson diagonalization with overlap
     ethr =  1.00E-02,  avg # of iterations =  3.0

     Threshold (ethr) on eigenvalues was too large:
     Diagonalizing with lowered threshold

     Davidson diagonalization with overlap
     ethr =  4.25E-04,  avg # of iterations =  3.0

     negative rho (up, down):  8.669E-04 0.000E+00

     total energy              =    -329.36400553 Ry
     Harris-Foulkes estimate   =    -329.53589682 Ry
     estimated scf accuracy    <       0.28681997 Ry

[...]

     End of self-consistent calculation

          k = 0.0000 0.0000 0.0000 ( 22119 PWs)   bands (ev):

    -8.4611  -7.7726  -7.6749  -7.4129  -7.0052  -6.7957  -6.6234  -6.5324
    -6.1997  -6.0602  -5.9450  -5.7284  -5.6905  -5.5776  -5.5502  -5.4618
    -5.2379  -5.1930  -5.1795  -5.1183  -5.1069  -4.9967  -4.9246  -4.8890
    -4.8428  -4.5502  -4.2983  -3.7538  -2.4317  -2.1202  -0.4525  -0.2353
     0.4182   0.7227

     the Fermi energy is    -3.7509 ev

!    total energy              =    -329.47719366 Ry
     Harris-Foulkes estimate   =    -329.47719366 Ry
     estimated scf accuracy    <          9.1E-09 Ry

     The total energy is the sum of the following terms:

     one-electron contribution =    -612.68368525 Ry
     hartree contribution      =     327.85430088 Ry
     xc contribution           =     -51.44920652 Ry
     ewald contribution        =       6.79958521 Ry
     smearing contrib. (-TS)   =       0.00181202 Ry

     convergence has been achieved in  11 iterations

     Forces acting on atoms (Ry/au):

     atom    1 type  1   force =    -0.00954092   -0.00156030   -0.00704312
     atom    2 type  1   force =    -0.01876770    0.00867156    0.01440375
     atom    3 type  1   force =    -0.00385379   -0.00219863   -0.02372223
     atom    4 type  1   force =     0.01220144   -0.00517927    0.00159557
     atom    5 type  1   force =     0.01996098    0.00026664    0.01476604

     Total force =     0.046424     Total SCF correction =     0.000490

     BFGS Geometry Optimization

     number of scf cycles    =   1
     number of bfgs steps    =   0

     energy   new            =    -329.4771936629 Ry

     new trust radius        =       0.0251970304 bohr
     new conv_thr            =       0.0000000100 Ry

ATOMIC_POSITIONS (bohr)
Au      -2.119046924   2.811529698  -0.553658122
Au      -0.036111700   2.962189558   4.124896745
Au       2.843505210   2.062829373   0.050964774
Au       4.517230438   4.035940732   6.024154567
Au       7.078390975   1.218460638   2.472673035

     Writing output data file pwscf.save
     Check: negative starting charge=   -0.006406
     NEW-OLD atomic charge density approx. for the potential
     Check: negative starting charge=   -0.006382

[...]

     energy   old            =    -329.4771936629 Ry
     energy   new            =    -329.4790560002 Ry

     CASE: energy  _new < energy  _old

[...]

     iteration #  1     ecut=    30.00 Ry     beta=0.70
     Davidson diagonalization with overlap
     c_bands:  1 eigenvalues not converged
     ethr =  1.00E-06,  avg # of iterations = 20.0

[...]

     CASE: energy  _new > energy  _old

[...]

     iteration #  1     ecut=    30.00 Ry     beta=0.70
     Davidson diagonalization with overlap
     c_bands:  1 eigenvalues not converged
     ethr =  1.00E-06,  avg # of iterations = 20.0

[...]

     WARNING: bfgs curvature condition failed, Theta= 0.619
     new trust radius        =       0.0452608002 bohr
     new conv_thr            =       0.0000000002 Ry

[...]

     WARNING: info= 10 for Hessian
     new trust radius        =       0.0678912003 bohr
     new conv_thr            =       0.0000000002 Ry

[...]

     WARNING: info= 10 for Hessian
     new trust radius        =       0.0088625579 bohr
     new conv_thr            =            1.0E-10 Ry

[...]

     WARNING: info= 10 for Hessian
     uphill step: resetting bfgs history

[...]

     negative rho (up, down):  7.679E-06 0.000E+00

[...]

     WARNING: bfgs curvature condition failed, Theta= 0.986
     new trust radius        =       0.0023276220 bohr
     new conv_thr            =            1.0E-10 Ry

[...]

     number of scf cycles    =  42
     number of bfgs steps    =  40

     energy   old            =    -329.4917801248 Ry
     energy   new            =    -329.4917847717 Ry

     CASE: energy  _new < energy  _old

     new trust radius        =       0.0034914329 bohr
     new conv_thr            =            1.0E-10 Ry

ATOMIC_POSITIONS (bohr)
Au      -1.990381655   2.611174824  -0.623899066
Au      -0.519330599   3.946978985   4.146675216
Au       2.859892834   1.906767479   0.581197466
Au       4.370715367   3.323039096   5.753599112
Au       7.563072053   1.302989616   2.261458272

     Writing output data file pwscf.save
     Check: negative starting charge=   -0.006442
     NEW-OLD atomic charge density approx. for the potential
     Check: negative starting charge=   -0.006442

     Self-consistent Calculation

[...]

     Threshold (ethr) on eigenvalues was too large:
     Diagonalizing with lowered threshold

     Davidson diagonalization with overlap
     ethr =  3.71E-09,  avg # of iterations =  3.0

[...]

     total energy              =    -329.49179133 Ry
     Harris-Foulkes estimate   =    -329.49179134 Ry
     estimated scf accuracy    <          3.1E-10 Ry

     iteration #  8     ecut=    30.00 Ry     beta=0.70
     Davidson diagonalization with overlap
     ethr =  5.59E-13,  avg # of iterations =  2.0

     End of self-consistent calculation

          k = 0.0000 0.0000 0.0000 ( 22119 PWs)   bands (ev):

    -8.5254  -7.7910  -7.6518  -7.2339  -6.8941  -6.8295  -6.6031  -6.4883
    -6.3062  -6.0773  -5.9680  -5.7691  -5.7309  -5.6865  -5.4453  -5.3660
    -5.3197  -5.2360  -5.2008  -5.1928  -5.1678  -5.1265  -4.9966  -4.9235
    -4.8786  -4.6933  -4.4861  -3.7832  -2.4789  -2.1886  -0.5566  -0.2174
     0.5190   0.8522

     the Fermi energy is    -3.7511 ev

!    total energy              =    -329.49179131 Ry
     Harris-Foulkes estimate   =    -329.49179133 Ry
     estimated scf accuracy    <          9.6E-11 Ry

     The total energy is the sum of the following terms:

     one-electron contribution =    -608.99086632 Ry
     hartree contribution      =     325.92268600 Ry
     xc contribution           =     -51.40340660 Ry
     ewald contribution        =       4.98400436 Ry
     smearing contrib. (-TS)   =      -0.00420875 Ry

     convergence has been achieved in   8 iterations

     Forces acting on atoms (Ry/au):

     atom    1 type  1   force =    -0.00022249   -0.00041311   -0.00015653
     atom    2 type  1   force =    -0.00036270    0.00094253    0.00046443
     atom    3 type  1   force =    -0.00001648    0.00019032   -0.00029779
     atom    4 type  1   force =     0.00022896   -0.00059792   -0.00043273
     atom    5 type  1   force =     0.00037271   -0.00012181    0.00042261

     Total force =     0.001592     Total SCF correction =     0.000039

     bfgs converged in  43 scf cycles and  41 bfgs steps
     (criteria: energy <  1.0E-04, force <  1.0E-03)

     End of BFGS Geometry Optimization

     Final energy   =    -329.4917913097 Ry
Begin final coordinates

ATOMIC_POSITIONS (bohr)
Au      -1.990381655   2.611174824  -0.623899066
Au      -0.519330599   3.946978985   4.146675216
Au       2.859892834   1.906767479   0.581197466
Au       4.370715367   3.323039096   5.753599112
Au       7.563072053   1.302989616   2.261458272
End final coordinates

     Writing output data file pwscf.save

     General routines

     Parallel routines

   This run was terminated on:   0:48: 1   4Aug2017

   JOB DONE.