     Program PWSCF v.6.0 (svn rev. 13079) starts on  4Aug2017 at  7:27:35

     Current dimensions of program PWSCF are:
     Max number of different atomic species (ntypx) = 10
     Max number of k-points (npk) =  40000
     Max angular momentum in pseudopotentials (lmaxx) =  3
     Message from routine iosys:
     pot_extrapolation='second-order' not available, using 'atomic'
     Message from routine iosys:
     wfc_extrapolation='second-order' not available, using 'atomic'

     Subspace diagonalization in iterative solution of the eigenvalue problem:
     a serial algorithm will be used

     bravais-lattice index     =            1
     lattice parameter (alat)  =      20.0000  a.u.
     unit-cell volume          =    8000.0000 (a.u.)^3
     number of atoms/cell      =            5
     number of atomic types    =            1
     number of electrons       =        55.00
     number of Kohn-Sham states=           34
     kinetic-energy cutoff     =      30.0000  Ry
     charge density cutoff     =     120.0000  Ry
     convergence threshold     =      1.0E-08
     mixing beta               =       0.7000
     number of iterations used =            8  plain     mixing
     Exchange-correlation      = BLYP ( 1  3  1  3 0 0)
     nstep                     =           50

     celldm(1)=  20.000000  celldm(2)=   0.000000  celldm(3)=   0.000000
     celldm(4)=   0.000000  celldm(5)=   0.000000  celldm(6)=   0.000000

     crystal axes: (cart. coord. in units of alat)
               a(1) = (   1.000000   0.000000   0.000000 )
               a(2) = (   0.000000   1.000000   0.000000 )
               a(3) = (   0.000000   0.000000   1.000000 )

     reciprocal axes: (cart. coord. in units 2 pi/alat)
               b(1) = (  1.000000  0.000000  0.000000 )
               b(2) = (  0.000000  1.000000  0.000000 )
               b(3) = (  0.000000  0.000000  1.000000 )

     PseudoPot. # 1 for Au read from file:
     ./Au.blyp-d-hgh.UPF
     MD5 check sum: c10d8bae01f806c36a1643a1c69a8479
     Pseudo is Norm-conserving, Zval = 11.0
     Generated in analytical, separable form
     Using radial grid of 1279 points,  6 beta functions with:
                l(1) =   0
                l(2) =   0
                l(3) =   1
                l(4) =   1
                l(5) =   2
                l(6) =   2

     atomic species   valence    mass     pseudopotential
        Au            11.00    28.08600     Au( 1.00)

     No symmetry found

   Cartesian axes

     site n.     atom                  positions (alat units)
         1           Au  tau(   1) = (  -0.0350742   0.0198405   0.0199643  )
         2           Au  tau(   2) = (  -0.0183071   0.1906559   0.2062646  )
         3           Au  tau(   3) = (   0.1618326   0.1737807   0.0272497  )
         4           Au  tau(   4) = (   0.2465473   0.2235991   0.2493986  )
         5           Au  tau(   5) = (   0.2282744  -0.0029233   0.1819658  )

     number of k points=     1  Marzari-Vanderbilt smearing, width (Ry)=  0.0250
                       cart. coord. in units 2pi/alat
        k(    1) = (   0.0000000   0.0000000   0.0000000), wk =   2.0000000

     Initial potential from superposition of free atoms
     Check: negative starting charge=   -0.006273

     starting charge   54.99940, renormalised to   55.00000

     negative rho (up, down):  6.273E-03 0.000E+00
     Starting wfc are   45 randomized atomic wfcs

     Self-consistent Calculation

     iteration #  1     ecut=    30.00 Ry     beta=0.70
     Davidson diagonalization with overlap
     ethr =  1.00E-02,  avg # of iterations =  4.0

     Threshold (ethr) on eigenvalues was too large:
     Diagonalizing with lowered threshold

     Davidson diagonalization with overlap
     ethr =  3.77E-04,  avg # of iterations =  6.0

     negative rho (up, down):  7.358E-04 0.000E+00

     total energy              =    -329.27738653 Ry
     Harris-Foulkes estimate   =    -329.43594820 Ry
     estimated scf accuracy    <       0.26238222 Ry

[...]

     End of self-consistent calculation

          k = 0.0000 0.0000 0.0000 ( 22119 PWs)   bands (ev):

    -9.2851  -8.3683  -7.8977  -7.7412  -7.6158  -7.2930  -7.0437  -6.8558
    -6.6497  -6.4417  -6.1103  -5.9184  -5.7491  -5.6522  -5.5522  -5.4292
    -5.2964  -5.2444  -5.1895  -5.1323  -5.0650  -4.9594  -4.8544  -4.7703
    -4.6308  -4.4341  -4.0059  -3.3666  -2.9334  -2.0181  -0.2651   0.0897
     0.3324   0.4880

     the Fermi energy is    -3.3477 ev

!    total energy              =    -329.37683583 Ry
     Harris-Foulkes estimate   =    -329.37683581 Ry
     estimated scf accuracy    <          6.0E-09 Ry

     The total energy is the sum of the following terms:

     one-electron contribution =    -670.55362817 Ry
     hartree contribution      =     356.55541328 Ry
     xc contribution           =     -51.54193652 Ry
     ewald contribution        =      36.16722882 Ry
     smearing contrib. (-TS)   =      -0.00391325 Ry

     convergence has been achieved in  13 iterations

     Forces acting on atoms (Ry/au):

     atom    1 type  1   force =    -0.02488321   -0.02483754   -0.01540015
     atom    2 type  1   force =    -0.02584707    0.01527374    0.02436496
     atom    3 type  1   force =    -0.00213629    0.03073995   -0.09996280
     atom    4 type  1   force =     0.03807974    0.09256440    0.08492353
     atom    5 type  1   force =     0.01478683   -0.11374056    0.00607446

     Total force =     0.210554     Total SCF correction =     0.000242

     BFGS Geometry Optimization

     number of scf cycles    =   1
     number of bfgs steps    =   0

     energy   new            =    -329.3768358287 Ry

     new trust radius        =       0.1312640114 bohr
     new conv_thr            =       0.0000000100 Ry

ATOMIC_POSITIONS (bohr)
Au      -0.726367212   0.371971465   0.383886853
Au      -0.391989068   3.828391743   4.149656960
Au       3.234515714   3.506354950   0.445032203
Au       4.969024740   4.564547404   5.072896525
Au       4.580274826  -0.172207562   3.645390459

     Writing output data file pwscf.save
     Check: negative starting charge=   -0.006273
     NEW-OLD atomic charge density approx. for the potential
     Check: negative starting charge=   -0.006176

[...]

     energy   old            =    -329.3768358287 Ry
     energy   new            =    -329.4064630067 Ry

     CASE: energy  _new < energy  _old

[...]

     WARNING: bfgs curvature condition failed, Theta= 0.596
     uphill step: resetting bfgs history

[...]

     WARNING: bfgs curvature condition failed, Theta= 0.923
     new trust radius        =       0.0261164747 bohr
     new conv_thr            =       0.0000000017 Ry

[...]

     WARNING: bfgs curvature condition failed, Theta= 0.827
     new trust radius        =       0.1781972911 bohr
     new conv_thr            =       0.0000000020 Ry

[...]

     iteration #  1     ecut=    30.00 Ry     beta=0.70
     Davidson diagonalization with overlap
     c_bands:  1 eigenvalues not converged
     ethr =  1.00E-06,  avg # of iterations = 20.0

[...]

     Self-consistent Calculation

[...]

     total energy              =    -329.49190208 Ry
     Harris-Foulkes estimate   =    -329.49190207 Ry
     estimated scf accuracy    <          1.2E-09 Ry

     iteration # 11     ecut=    30.00 Ry     beta=0.70
     Davidson diagonalization with overlap
     ethr =  2.26E-12,  avg # of iterations =  3.0

     End of self-consistent calculation

          k = 0.0000 0.0000 0.0000 ( 22119 PWs)   bands (ev):

    -8.5086  -7.7988  -7.7137  -7.2923  -6.9789  -6.8131  -6.6402  -6.5015
    -6.3520  -6.0369  -5.9932  -5.7593  -5.7163  -5.6876  -5.4165  -5.3968
    -5.3292  -5.2125  -5.2116  -5.1907  -5.1551  -5.1221  -4.9967  -4.8956
    -4.8567  -4.6672  -4.4434  -3.7795  -2.4474  -2.1293  -0.5229  -0.1798
     0.4905   0.7447

     the Fermi energy is    -3.7530 ev

!    total energy              =    -329.49190209 Ry
     Harris-Foulkes estimate   =    -329.49190208 Ry
     estimated scf accuracy    <          2.3E-10 Ry

     The total energy is the sum of the following terms:

     one-electron contribution =    -609.33630477 Ry
     hartree contribution      =     326.09590813 Ry
     xc contribution           =     -51.41487175 Ry
     ewald contribution        =       5.16630471 Ry
     smearing contrib. (-TS)   =      -0.00293841 Ry

     convergence has been achieved in  11 iterations

     Forces acting on atoms (Ry/au):

     atom    1 type  1   force =     0.00184217   -0.00340652   -0.00460694
     atom    2 type  1   force =    -0.00772081    0.00458701    0.00078909
     atom    3 type  1   force =    -0.00889674    0.00036268   -0.00220889
     atom    4 type  1   force =     0.00820988   -0.00053571    0.00494893
     atom    5 type  1   force =     0.00656550   -0.00100745    0.00107781

     Total force =     0.018415     Total SCF correction =     0.000082

     number of scf cycles    =  50
     number of bfgs steps    =  49

     energy   old            =    -329.4914998762 Ry
     energy   new            =    -329.4919020856 Ry

     CASE: energy  _new < energy  _old

     new trust radius        =       0.0430833397 bohr
     new conv_thr            =       0.0000000004 Ry

ATOMIC_POSITIONS (bohr)
Au      -1.931717826   1.944514383  -0.493361993
Au      -0.611645778   4.235097194   3.887335565
Au       2.798605131   1.142127601   1.187698849
Au       4.145087197   4.056214202   5.741911791
Au       7.265130276   0.721104620   3.373278788

     Writing output data file pwscf.save
     Check: negative starting charge=   -0.006221
     NEW-OLD atomic charge density approx. for the potential
     Check: negative starting charge=   -0.006240

     negative rho (up, down):  4.489E-04 0.000E+00

     Writing output data file pwscf.save

     General routines

     Parallel routines

   This run was terminated on:   7:29:59   4Aug2017

   JOB DONE.