     Program PWSCF v.6.0 (svn rev. 13079) starts on  3Aug2017 at 10:13:36

     Current dimensions of program PWSCF are:
     Max number of different atomic species (ntypx) = 10
     Max number of k-points (npk) =  40000
     Max angular momentum in pseudopotentials (lmaxx) =  3
     Message from routine iosys:
     pot_extrapolation='second-order' not available, using 'atomic'
     Message from routine iosys:
     wfc_extrapolation='second-order' not available, using 'atomic'

     Subspace diagonalization in iterative solution of the eigenvalue problem:
     a serial algorithm will be used

     bravais-lattice index     =            1
     lattice parameter (alat)  =      20.0000  a.u.
     unit-cell volume          =    8000.0000 (a.u.)^3
     number of atoms/cell      =            5
     number of atomic types    =            1
     number of electrons       =        55.00
     number of Kohn-Sham states=           34
     kinetic-energy cutoff     =      30.0000  Ry
     charge density cutoff     =     120.0000  Ry
     convergence threshold     =      1.0E-08
     mixing beta               =       0.7000
     number of iterations used =            8  plain     mixing
     Exchange-correlation      = BLYP ( 1  3  1  3 0 0)
     nstep                     =           50

     celldm(1)=  20.000000  celldm(2)=   0.000000  celldm(3)=   0.000000
     celldm(4)=   0.000000  celldm(5)=   0.000000  celldm(6)=   0.000000

     crystal axes: (cart. coord. in units of alat)
               a(1) = (   1.000000   0.000000   0.000000 )
               a(2) = (   0.000000   1.000000   0.000000 )
               a(3) = (   0.000000   0.000000   1.000000 )

     reciprocal axes: (cart. coord. in units 2 pi/alat)
               b(1) = (  1.000000  0.000000  0.000000 )
               b(2) = (  0.000000  1.000000  0.000000 )
               b(3) = (  0.000000  0.000000  1.000000 )

     PseudoPot. # 1 for Au read from file:
     ./Au.blyp-d-hgh.UPF
     MD5 check sum: c10d8bae01f806c36a1643a1c69a8479
     Pseudo is Norm-conserving, Zval = 11.0
     Generated in analytical, separable form
     Using radial grid of 1279 points,  6 beta functions with:
                l(1) =   0
                l(2) =   0
                l(3) =   1
                l(4) =   1
                l(5) =   2
                l(6) =   2

     atomic species   valence    mass     pseudopotential
        Au            11.00    28.08600     Au( 1.00)

     No symmetry found

   Cartesian axes

     site n.     atom                  positions (alat units)
         1           Au  tau(   1) = (  -0.0761817   0.0966049  -0.0509860  )
         2           Au  tau(   2) = (  -0.0490476   0.1810146   0.1802868  )
         3           Au  tau(   3) = (   0.1621030   0.0762297   0.0263435  )
         4           Au  tau(   4) = (   0.1925106   0.1556889   0.2923546  )
         5           Au  tau(   5) = (   0.3793074   0.0767653   0.1519619  )

     number of k points=     1  Marzari-Vanderbilt smearing, width (Ry)=  0.0250
                       cart. coord. in units 2pi/alat
        k(    1) = (   0.0000000   0.0000000   0.0000000), wk =   2.0000000

     Initial potential from superposition of free atoms
     Check: negative starting charge=   -0.006410

     starting charge   54.99940, renormalised to   55.00000

     negative rho (up, down):  6.410E-03 0.000E+00
     Starting wfc are   45 randomized atomic wfcs

     Self-consistent Calculation

     iteration #  1     ecut=    30.00 Ry     beta=0.70
     Davidson diagonalization with overlap
     ethr =  1.00E-02,  avg # of iterations =  3.0

     Threshold (ethr) on eigenvalues was too large:
     Diagonalizing with lowered threshold

     Davidson diagonalization with overlap
     ethr =  4.25E-04,  avg # of iterations =  5.0

     negative rho (up, down):  8.832E-04 0.000E+00

     total energy              =    -329.36726619 Ry
     Harris-Foulkes estimate   =    -329.54510751 Ry
     estimated scf accuracy    <       0.29238766 Ry

[...]

     End of self-consistent calculation

          k = 0.0000 0.0000 0.0000 ( 22119 PWs)   bands (ev):

    -8.4941  -7.8819  -7.6601  -7.1318  -6.9506  -6.9099  -6.8273  -6.5523
    -6.2000  -6.1861  -6.0554  -5.7611  -5.7457  -5.6681  -5.4023  -5.3444
    -5.2972  -5.2731  -5.2119  -5.1590  -5.1515  -5.1401  -4.9990  -4.9132
    -4.9048  -4.6615  -4.4443  -3.7025  -2.4917  -2.1931  -0.5494  -0.1922
     0.4676   0.8070

     the Fermi energy is    -3.6653 ev

!    total energy              =    -329.48462844 Ry
     Harris-Foulkes estimate   =    -329.48462845 Ry
     estimated scf accuracy    <          8.8E-09 Ry

     The total energy is the sum of the following terms:

     one-electron contribution =    -610.05954318 Ry
     hartree contribution      =     326.44590877 Ry
     xc contribution           =     -51.41813770 Ry
     ewald contribution        =       5.55256925 Ry
     smearing contrib. (-TS)   =      -0.00542558 Ry

     convergence has been achieved in  11 iterations

     Forces acting on atoms (Ry/au):

     atom    1 type  1   force =    -0.00568452   -0.00741035   -0.02581097
     atom    2 type  1   force =     0.01628048    0.00494682    0.02369188
     atom    3 type  1   force =    -0.00392635    0.00282557    0.00781210
     atom    4 type  1   force =    -0.02950352    0.00920618    0.00653860
     atom    5 type  1   force =     0.02283390   -0.00956823   -0.01223160

     Total force =     0.058730     Total SCF correction =     0.000432

     BFGS Geometry Optimization

     number of scf cycles    =   1
     number of bfgs steps    =   0

     energy   new            =    -329.4846284351 Ry

     new trust radius        =       0.0315905758 bohr
     new conv_thr            =       0.0000000100 Ry

ATOMIC_POSITIONS (bohr)
Au      -1.529318518   1.924688652  -1.045529970
Au      -0.964672518   3.625238822   3.629428876
Au       3.238133653   1.527418570   0.534681097
Au       3.820707484   3.122984182   5.853630598
Au       7.608980899   1.525738775   3.027006399

     Writing output data file pwscf.save
     Check: negative starting charge=   -0.006410
     NEW-OLD atomic charge density approx. for the potential
     Check: negative starting charge=   -0.006382

[...]

     energy   old            =    -329.4846284351 Ry
     energy   new            =    -329.4875171008 Ry

     CASE: energy  _new < energy  _old

[...]

     CASE: energy  _new > energy  _old

[...]

     Threshold (ethr) on eigenvalues was too large:
     Diagonalizing with lowered threshold

     Davidson diagonalization with overlap
     ethr =  4.20E-08,  avg # of iterations =  1.0

[...]

     number of scf cycles    =  36
     number of bfgs steps    =  34

     energy   old            =    -329.4926022715 Ry
     energy   new            =    -329.4926393146 Ry

     CASE: energy  _new < energy  _old

     new trust radius        =       0.0184600205 bohr
     new conv_thr            =            1.0E-10 Ry

ATOMIC_POSITIONS (bohr)
Au      -1.605298050   2.202154423  -1.140209238
Au      -0.771749607   3.745621219   3.723271642
Au       3.078907543   1.594671256   0.663344244
Au       3.900847941   3.117415438   5.871521330
Au       7.571123173   1.066206664   2.881289022

     Writing output data file pwscf.save
     Check: negative starting charge=   -0.006407
     NEW-OLD atomic charge density approx. for the potential
     Check: negative starting charge=   -0.006403

[...]

     Self-consistent Calculation

[...]

     negative rho (up, down):  2.093E-08 0.000E+00

[...]

     total energy              =    -329.49266290 Ry
     Harris-Foulkes estimate   =    -329.49266290 Ry
     estimated scf accuracy    <          1.4E-10 Ry

     iteration # 10     ecut=    30.00 Ry     beta=0.70
     Davidson diagonalization with overlap
     ethr =  2.52E-13,  avg # of iterations =  2.0

     End of self-consistent calculation

          k = 0.0000 0.0000 0.0000 ( 22119 PWs)   bands (ev):

    -8.5181  -7.7848  -7.6572  -7.2344  -6.8603  -6.8203  -6.6095  -6.4845
    -6.3072  -6.0817  -5.9549  -5.7725  -5.7303  -5.6892  -5.4585  -5.3568
    -5.3152  -5.2490  -5.2012  -5.1840  -5.1684  -5.1235  -5.0002  -4.9262
    -4.8470  -4.7237  -4.4844  -3.7736  -2.4446  -2.2120  -0.5489  -0.1919
     0.4618   0.8337

     the Fermi energy is    -3.7399 ev

!    total energy              =    -329.49266290 Ry
     Harris-Foulkes estimate   =    -329.49266290 Ry
     estimated scf accuracy    <          1.5E-11 Ry

     The total energy is the sum of the following terms:

     one-electron contribution =    -607.91142181 Ry
     hartree contribution      =     325.38454968 Ry
     xc contribution           =     -51.40011083 Ry
     ewald contribution        =       4.43893245 Ry
     smearing contrib. (-TS)   =      -0.00461238 Ry

     convergence has been achieved in  10 iterations

     Forces acting on atoms (Ry/au):

     atom    1 type  1   force =     0.00045589    0.00014273   -0.00016361
     atom    2 type  1   force =     0.00001237    0.00016323    0.00035248
     atom    3 type  1   force =    -0.00096023   -0.00011524   -0.00048026
     atom    4 type  1   force =     0.00051342   -0.00028383   -0.00047242
     atom    5 type  1   force =    -0.00002145    0.00009311    0.00076382

     Total force =     0.001653     Total SCF correction =     0.000014

     bfgs converged in  37 scf cycles and  35 bfgs steps
     (criteria: energy <  1.0E-04, force <  1.0E-03)

     End of BFGS Geometry Optimization

     Final energy   =    -329.4926629004 Ry
Begin final coordinates

ATOMIC_POSITIONS (bohr)
Au      -1.605298050   2.202154423  -1.140209238
Au      -0.771749607   3.745621219   3.723271642
Au       3.078907543   1.594671256   0.663344244
Au       3.900847941   3.117415438   5.871521330
Au       7.571123173   1.066206664   2.881289022
End final coordinates

     Writing output data file pwscf.save

     General routines

     Parallel routines

   This run was terminated on:  10:18:11   3Aug2017

   JOB DONE.