     Program PWSCF v.6.0 (svn rev. 13079) starts on  3Aug2017 at 22:19: 7

     Current dimensions of program PWSCF are:
     Max number of different atomic species (ntypx) = 10
     Max number of k-points (npk) =  40000
     Max angular momentum in pseudopotentials (lmaxx) =  3
     Message from routine iosys:
     pot_extrapolation='second-order' not available, using 'atomic'
     Message from routine iosys:
     wfc_extrapolation='second-order' not available, using 'atomic'

     Subspace diagonalization in iterative solution of the eigenvalue problem:
     a serial algorithm will be used

     bravais-lattice index     =            1
     lattice parameter (alat)  =      20.0000  a.u.
     unit-cell volume          =    8000.0000 (a.u.)^3
     number of atoms/cell      =            5
     number of atomic types    =            1
     number of electrons       =        55.00
     number of Kohn-Sham states=           34
     kinetic-energy cutoff     =      30.0000  Ry
     charge density cutoff     =     120.0000  Ry
     convergence threshold     =      1.0E-08
     mixing beta               =       0.7000
     number of iterations used =            8  plain     mixing
     Exchange-correlation      = BLYP ( 1  3  1  3 0 0)
     nstep                     =           50

     celldm(1)=  20.000000  celldm(2)=   0.000000  celldm(3)=   0.000000
     celldm(4)=   0.000000  celldm(5)=   0.000000  celldm(6)=   0.000000

     crystal axes: (cart. coord. in units of alat)
               a(1) = (   1.000000   0.000000   0.000000 )
               a(2) = (   0.000000   1.000000   0.000000 )
               a(3) = (   0.000000   0.000000   1.000000 )

     reciprocal axes: (cart. coord. in units 2 pi/alat)
               b(1) = (  1.000000  0.000000  0.000000 )
               b(2) = (  0.000000  1.000000  0.000000 )
               b(3) = (  0.000000  0.000000  1.000000 )

     PseudoPot. # 1 for Au read from file:
     ./Au.blyp-d-hgh.UPF
     MD5 check sum: c10d8bae01f806c36a1643a1c69a8479
     Pseudo is Norm-conserving, Zval = 11.0
     Generated in analytical, separable form
     Using radial grid of 1279 points,  6 beta functions with:
                l(1) =   0
                l(2) =   0
                l(3) =   1
                l(4) =   1
                l(5) =   2
                l(6) =   2

     atomic species   valence    mass     pseudopotential
        Au            11.00    28.08600     Au( 1.00)

     No symmetry found

   Cartesian axes

     site n.     atom                  positions (alat units)
         1           Au  tau(   1) = (  -0.1030808   0.1622630  -0.0240991  )
         2           Au  tau(   2) = (  -0.0003714   0.1295438   0.2149897  )
         3           Au  tau(   3) = (   0.1484745   0.1064147   0.0008530  )
         4           Au  tau(   4) = (   0.2171340   0.2262297   0.2814153  )
         5           Au  tau(   5) = (   0.3567831   0.0486671   0.1280288  )

     number of k points=     1  Marzari-Vanderbilt smearing, width (Ry)=  0.0250
                       cart. coord. in units 2pi/alat
        k(    1) = (   0.0000000   0.0000000   0.0000000), wk =   2.0000000

     Initial potential from superposition of free atoms
     Check: negative starting charge=   -0.006202

     starting charge   54.99940, renormalised to   55.00000

     negative rho (up, down):  6.202E-03 0.000E+00
     Starting wfc are   45 randomized atomic wfcs

     Self-consistent Calculation

     iteration #  1     ecut=    30.00 Ry     beta=0.70
     Davidson diagonalization with overlap
     ethr =  1.00E-02,  avg # of iterations =  3.0

     Threshold (ethr) on eigenvalues was too large:
     Diagonalizing with lowered threshold

     Davidson diagonalization with overlap
     ethr =  3.72E-04,  avg # of iterations =  5.0

     negative rho (up, down):  8.351E-04 0.000E+00

     total energy              =    -329.36404699 Ry
     Harris-Foulkes estimate   =    -329.51709788 Ry
     estimated scf accuracy    <       0.26057823 Ry

[...]

     End of self-consistent calculation

          k = 0.0000 0.0000 0.0000 ( 22119 PWs)   bands (ev):

    -8.1454  -7.6029  -7.4988  -7.2224  -6.8358  -6.6607  -6.5238  -6.4271
    -6.1303  -5.8814  -5.7795  -5.6963  -5.5945  -5.5147  -5.4751  -5.4410
    -5.2484  -5.2046  -5.1505  -5.1034  -5.0671  -4.9932  -4.8918  -4.8646
    -4.8441  -4.4314  -4.3807  -3.7983  -2.4272  -2.3422  -0.2991  -0.1792
     0.3670   0.6547

     the Fermi energy is    -3.8159 ev

!    total energy              =    -329.46544608 Ry
     Harris-Foulkes estimate   =    -329.46544609 Ry
     estimated scf accuracy    <          4.1E-09 Ry

     The total energy is the sum of the following terms:

     one-electron contribution =    -603.56312025 Ry
     hartree contribution      =     323.42035560 Ry
     xc contribution           =     -51.40351187 Ry
     ewald contribution        =       2.07461141 Ry
     smearing contrib. (-TS)   =       0.00621903 Ry

     convergence has been achieved in  12 iterations

     Forces acting on atoms (Ry/au):

     atom    1 type  1   force =     0.00916694   -0.00506924    0.00508531
     atom    2 type  1   force =    -0.02836915   -0.00082624   -0.01630113
     atom    3 type  1   force =    -0.01348287    0.00498707    0.00407323
     atom    4 type  1   force =     0.03400179   -0.01305643   -0.00498415
     atom    5 type  1   force =    -0.00131672    0.01396483    0.01212675

     Total force =     0.055904     Total SCF correction =     0.000273

     BFGS Geometry Optimization

     number of scf cycles    =   1
     number of bfgs steps    =   0

     energy   new            =    -329.4654460829 Ry

     new trust radius        =       0.0367618549 bohr
     new conv_thr            =       0.0000000100 Ry

ATOMIC_POSITIONS (bohr)
Au      -2.052449059   3.240190760  -0.476895687
Au      -0.035797147   2.590048763   4.283492867
Au       2.956007132   2.133281074   0.021134226
Au       4.376681792   4.511537572   5.623320846
Au       7.134345283   0.987307831   2.572702749

     Writing output data file pwscf.save
     Check: negative starting charge=   -0.006202
     NEW-OLD atomic charge density approx. for the potential
     Check: negative starting charge=   -0.006203

[...]

     energy   old            =    -329.4654460829 Ry
     energy   new            =    -329.4681806403 Ry

     CASE: energy  _new < energy  _old

[...]

     WARNING: bfgs curvature condition failed, Theta= 0.971
     new trust radius        =       0.1205127867 bohr
     new conv_thr            =       0.0000000015 Ry

[...]

     iteration #  1     ecut=    30.00 Ry     beta=0.70
     Davidson diagonalization with overlap
     c_bands:  1 eigenvalues not converged
     ethr =  1.00E-06,  avg # of iterations = 20.0

[...]

     WARNING: info= 12 for Hessian
     uphill step: resetting bfgs history

[...]

     WARNING: bfgs curvature condition failed, Theta= 0.984
     new trust radius        =       0.0037006793 bohr
     new conv_thr            =            1.0E-10 Ry

[...]

     number of scf cycles    =  41
     number of bfgs steps    =  40

     energy   old            =    -329.4917520883 Ry
     energy   new            =    -329.4917590103 Ry

     CASE: energy  _new < energy  _old

     new trust radius        =       0.0063191352 bohr
     new conv_thr            =            1.0E-10 Ry

ATOMIC_POSITIONS (bohr)
Au      -1.912531766   2.797992380  -0.697360373
Au      -0.605217929   3.878287496   4.189126689
Au       2.953587725   2.162334067   0.541236129
Au       4.308424927   3.245893872   5.734664704
Au       7.634525043   1.377858185   2.256087851

     Writing output data file pwscf.save
     Check: negative starting charge=   -0.006524
     NEW-OLD atomic charge density approx. for the potential
     Check: negative starting charge=   -0.006523

     negative rho (up, down):  5.151E-07 0.000E+00

     Self-consistent Calculation

[...]

     Threshold (ethr) on eigenvalues was too large:
     Diagonalizing with lowered threshold

     Davidson diagonalization with overlap
     ethr =  1.36E-08,  avg # of iterations =  2.0

[...]

     total energy              =    -329.49176396 Ry
     Harris-Foulkes estimate   =    -329.49176397 Ry
     estimated scf accuracy    <          2.3E-10 Ry

     iteration #  9     ecut=    30.00 Ry     beta=0.70
     Davidson diagonalization with overlap
     ethr =  4.20E-13,  avg # of iterations =  2.0

     End of self-consistent calculation

          k = 0.0000 0.0000 0.0000 ( 22119 PWs)   bands (ev):

    -8.5083  -7.7800  -7.6509  -7.2264  -6.8469  -6.8154  -6.6051  -6.4828
    -6.3035  -6.0800  -5.9466  -5.7703  -5.7332  -5.6769  -5.4641  -5.3596
    -5.3123  -5.2483  -5.2008  -5.1826  -5.1698  -5.1224  -5.0050  -4.9279
    -4.8426  -4.7318  -4.4852  -3.7832  -2.4863  -2.1961  -0.5592  -0.2150
     0.5181   0.8365

     the Fermi energy is    -3.7505 ev

!    total energy              =    -329.49176396 Ry
     Harris-Foulkes estimate   =    -329.49176396 Ry
     estimated scf accuracy    <          3.0E-11 Ry

     The total energy is the sum of the following terms:

     one-electron contribution =    -608.49459027 Ry
     hartree contribution      =     325.67993258 Ry
     xc contribution           =     -51.39961952 Ry
     ewald contribution        =       4.72688198 Ry
     smearing contrib. (-TS)   =      -0.00436873 Ry

     convergence has been achieved in   9 iterations

     Forces acting on atoms (Ry/au):

     atom    1 type  1   force =     0.00005386    0.00019174   -0.00027739
     atom    2 type  1   force =    -0.00047733    0.00015903   -0.00009313
     atom    3 type  1   force =     0.00035809   -0.00036468    0.00008211
     atom    4 type  1   force =     0.00034036   -0.00008640    0.00006438
     atom    5 type  1   force =    -0.00027498    0.00010031    0.00022403

     Total force =     0.000954     Total SCF correction =     0.000025

     bfgs converged in  42 scf cycles and  41 bfgs steps
     (criteria: energy <  1.0E-04, force <  1.0E-03)

     End of BFGS Geometry Optimization

     Final energy   =    -329.4917639559 Ry
Begin final coordinates

ATOMIC_POSITIONS (bohr)
Au      -1.912531766   2.797992380  -0.697360373
Au      -0.605217929   3.878287496   4.189126689
Au       2.953587725   2.162334067   0.541236129
Au       4.308424927   3.245893872   5.734664704
Au       7.634525043   1.377858185   2.256087851
End final coordinates

     Writing output data file pwscf.save

     General routines

     Parallel routines

   This run was terminated on:  22:20:56   3Aug2017

   JOB DONE.