     Program PWSCF v.6.0 (svn rev. 13079) starts on  4Aug2017 at  6:17:37

     Current dimensions of program PWSCF are:
     Max number of different atomic species (ntypx) = 10
     Max number of k-points (npk) =  40000
     Max angular momentum in pseudopotentials (lmaxx) =  3
     Message from routine iosys:
     pot_extrapolation='second-order' not available, using 'atomic'
     Message from routine iosys:
     wfc_extrapolation='second-order' not available, using 'atomic'

     Subspace diagonalization in iterative solution of the eigenvalue problem:
     a serial algorithm will be used

     bravais-lattice index     =            1
     lattice parameter (alat)  =      20.0000  a.u.
     unit-cell volume          =    8000.0000 (a.u.)^3
     number of atoms/cell      =            5
     number of atomic types    =            1
     number of electrons       =        55.00
     number of Kohn-Sham states=           34
     kinetic-energy cutoff     =      30.0000  Ry
     charge density cutoff     =     120.0000  Ry
     convergence threshold     =      1.0E-08
     mixing beta               =       0.7000
     number of iterations used =            8  plain     mixing
     Exchange-correlation      = BLYP ( 1  3  1  3 0 0)
     nstep                     =           50

     celldm(1)=  20.000000  celldm(2)=   0.000000  celldm(3)=   0.000000
     celldm(4)=   0.000000  celldm(5)=   0.000000  celldm(6)=   0.000000

     crystal axes: (cart. coord. in units of alat)
               a(1) = (   1.000000   0.000000   0.000000 )
               a(2) = (   0.000000   1.000000   0.000000 )
               a(3) = (   0.000000   0.000000   1.000000 )

     reciprocal axes: (cart. coord. in units 2 pi/alat)
               b(1) = (  1.000000  0.000000  0.000000 )
               b(2) = (  0.000000  1.000000  0.000000 )
               b(3) = (  0.000000  0.000000  1.000000 )

     PseudoPot. # 1 for Au read from file:
     ./Au.blyp-d-hgh.UPF
     MD5 check sum: c10d8bae01f806c36a1643a1c69a8479
     Pseudo is Norm-conserving, Zval = 11.0
     Generated in analytical, separable form
     Using radial grid of 1279 points,  6 beta functions with:
                l(1) =   0
                l(2) =   0
                l(3) =   1
                l(4) =   1
                l(5) =   2
                l(6) =   2

     atomic species   valence    mass     pseudopotential
        Au            11.00    28.08600     Au( 1.00)

     No symmetry found

   Cartesian axes

     site n.     atom                  positions (alat units)
         1           Au  tau(   1) = (   0.0499992   0.0086384   0.0451700  )
         2           Au  tau(   2) = (   0.0571490   0.1950553   0.1486953  )
         3           Au  tau(   3) = (   0.1760456   0.1833011  -0.0370021  )
         4           Au  tau(   4) = (   0.2375265   0.2328428   0.2234411  )
         5           Au  tau(   5) = (   0.2180972  -0.0077188   0.2117661  )

     number of k points=     1  Marzari-Vanderbilt smearing, width (Ry)=  0.0250
                       cart. coord. in units 2pi/alat
        k(    1) = (   0.0000000   0.0000000   0.0000000), wk =   2.0000000

     Initial potential from superposition of free atoms
     Check: negative starting charge=   -0.007006

     starting charge   54.99940, renormalised to   55.00000

     negative rho (up, down):  7.006E-03 0.000E+00
     Starting wfc are   45 randomized atomic wfcs

     Self-consistent Calculation

     iteration #  1     ecut=    30.00 Ry     beta=0.70
     Davidson diagonalization with overlap
     ethr =  1.00E-02,  avg # of iterations =  4.0

     Threshold (ethr) on eigenvalues was too large:
     Diagonalizing with lowered threshold

     Davidson diagonalization with overlap
     ethr =  8.94E-04,  avg # of iterations =  2.0

     negative rho (up, down):  7.009E-04 0.000E+00

     total energy              =    -328.63830496 Ry
     Harris-Foulkes estimate   =    -328.99348168 Ry
     estimated scf accuracy    <       0.52079396 Ry

[...]

     End of self-consistent calculation

          k = 0.0000 0.0000 0.0000 ( 22119 PWs)   bands (ev):

   -10.7681 -10.5354 -10.1769  -9.5764  -9.3515  -8.3339  -7.9053  -7.7775
    -7.4599  -7.2284  -6.7891  -6.7323  -6.4249  -6.1036  -5.6946  -5.5617
    -5.4036  -5.2530  -5.1355  -5.0527  -4.9916  -4.8903  -4.8380  -4.6437
    -4.1265  -4.0489  -3.5806  -3.5065  -2.8741  -1.2961  -0.3418   0.0050
     0.3113   0.7082

     the Fermi energy is    -3.4005 ev

!    total energy              =    -328.90384303 Ry
     Harris-Foulkes estimate   =    -328.90384304 Ry
     estimated scf accuracy    <          1.9E-09 Ry

     The total energy is the sum of the following terms:

     one-electron contribution =    -748.33620643 Ry
     hartree contribution      =     394.65723760 Ry
     xc contribution           =     -52.01899388 Ry
     ewald contribution        =      76.79517327 Ry
     smearing contrib. (-TS)   =      -0.00105360 Ry

     convergence has been achieved in  15 iterations

     Forces acting on atoms (Ry/au):

     atom    1 type  1   force =    -0.16170547   -0.42356450   -0.19982255
     atom    2 type  1   force =    -0.71813650    0.21978828    0.11829726
     atom    3 type  1   force =     0.18982906    0.09705842   -0.28870223
     atom    4 type  1   force =     0.61426864    0.21062832    0.28938870
     atom    5 type  1   force =     0.07574427   -0.10391053    0.08083883

     Total force =     1.216888     Total SCF correction =     0.000170

     BFGS Geometry Optimization

     number of scf cycles    =   1
     number of bfgs steps    =   0

     energy   new            =    -328.9038430342 Ry

     new trust radius        =       0.5000000000 bohr
     new conv_thr            =       0.0000000100 Ry

ATOMIC_POSITIONS (bohr)
Au       0.893637589  -0.105791315   0.771985695
Au       0.670694930   4.045650864   3.051704784
Au       3.645755033   3.729851957  -0.929908467
Au       5.154507849   4.795376773   4.659138927
Au       4.411756599  -0.222714279   4.288486061

     Writing output data file pwscf.save
     Check: negative starting charge=   -0.007006
     NEW-OLD atomic charge density approx. for the potential
     Check: negative starting charge=   -0.006447

[...]

     energy   old            =    -328.9038430342 Ry
     energy   new            =    -329.3674294507 Ry

     CASE: energy  _new < energy  _old

[...]

     iteration #  1     ecut=    30.00 Ry     beta=0.70
     Davidson diagonalization with overlap
     c_bands:  1 eigenvalues not converged
     ethr =  1.00E-06,  avg # of iterations = 20.0

[...]

     Threshold (ethr) on eigenvalues was too large:
     Diagonalizing with lowered threshold

     Davidson diagonalization with overlap
     ethr =  9.27E-08,  avg # of iterations =  1.0

[...]

     Self-consistent Calculation

[...]

     total energy              =    -329.49380538 Ry
     Harris-Foulkes estimate   =    -329.49380538 Ry
     estimated scf accuracy    <          2.8E-10 Ry

     iteration # 10     ecut=    30.00 Ry     beta=0.70
     Davidson diagonalization with overlap
     ethr =  5.02E-13,  avg # of iterations =  2.0

     End of self-consistent calculation

          k = 0.0000 0.0000 0.0000 ( 22119 PWs)   bands (ev):

    -8.4946  -7.7662  -7.6574  -7.2230  -6.8449  -6.8030  -6.5894  -6.4774
    -6.3053  -6.0715  -5.9349  -5.7641  -5.7187  -5.6801  -5.4556  -5.3576
    -5.3135  -5.2493  -5.1959  -5.1725  -5.1686  -5.1184  -5.0022  -4.9232
    -4.8269  -4.7383  -4.4847  -3.7801  -2.4234  -2.1819  -0.5233  -0.2331
     0.4807   0.6787

     the Fermi energy is    -3.7470 ev

!    total energy              =    -329.49380539 Ry
     Harris-Foulkes estimate   =    -329.49380538 Ry
     estimated scf accuracy    <          3.2E-11 Ry

     The total energy is the sum of the following terms:

     one-electron contribution =    -604.21640536 Ry
     hartree contribution      =     323.54830811 Ry
     xc contribution           =     -51.39517763 Ry
     ewald contribution        =       2.57392617 Ry
     smearing contrib. (-TS)   =      -0.00445667 Ry

     convergence has been achieved in  10 iterations

     Forces acting on atoms (Ry/au):

     atom    1 type  1   force =    -0.00013102    0.00289647   -0.00152779
     atom    2 type  1   force =    -0.00043557    0.00120597    0.00020850
     atom    3 type  1   force =    -0.00025769   -0.00194165    0.00207685
     atom    4 type  1   force =     0.00049863   -0.00151504   -0.00031112
     atom    5 type  1   force =     0.00032565   -0.00064575   -0.00044645

     Total force =     0.004893     Total SCF correction =     0.000020

     number of scf cycles    =  50
     number of bfgs steps    =  49

     energy   old            =    -329.4937574241 Ry
     energy   new            =    -329.4938053880 Ry

     CASE: energy  _new < energy  _old

     new trust radius        =       0.0224856665 bohr
     new conv_thr            =            1.0E-10 Ry

ATOMIC_POSITIONS (bohr)
Au       1.690123093  -0.610008438   0.494738605
Au       3.030145588   4.421766692   2.066527924
Au       0.876748235   3.590090745  -2.439645845
Au       5.142162701   4.807343296   6.656918016
Au       4.037172383   0.033181704   5.062868300

     Writing output data file pwscf.save
     Check: negative starting charge=   -0.006203
     NEW-OLD atomic charge density approx. for the potential
     Check: negative starting charge=   -0.006199

     negative rho (up, down):  8.854E-05 0.000E+00

     Writing output data file pwscf.save

     General routines

     Parallel routines

   This run was terminated on:   6:20:16   4Aug2017

   JOB DONE.