     Program PWSCF v.6.0 (svn rev. 13079) starts on  3Aug2017 at 14:16: 3

     Current dimensions of program PWSCF are:
     Max number of different atomic species (ntypx) = 10
     Max number of k-points (npk) =  40000
     Max angular momentum in pseudopotentials (lmaxx) =  3
     Message from routine iosys:
     pot_extrapolation='second-order' not available, using 'atomic'
     Message from routine iosys:
     wfc_extrapolation='second-order' not available, using 'atomic'

     Subspace diagonalization in iterative solution of the eigenvalue problem:
     a serial algorithm will be used

     bravais-lattice index     =            1
     lattice parameter (alat)  =      20.0000  a.u.
     unit-cell volume          =    8000.0000 (a.u.)^3
     number of atoms/cell      =            5
     number of atomic types    =            1
     number of electrons       =        55.00
     number of Kohn-Sham states=           34
     kinetic-energy cutoff     =      30.0000  Ry
     charge density cutoff     =     120.0000  Ry
     convergence threshold     =      1.0E-08
     mixing beta               =       0.7000
     number of iterations used =            8  plain     mixing
     Exchange-correlation      = BLYP ( 1  3  1  3 0 0)
     nstep                     =           50

     celldm(1)=  20.000000  celldm(2)=   0.000000  celldm(3)=   0.000000
     celldm(4)=   0.000000  celldm(5)=   0.000000  celldm(6)=   0.000000

     crystal axes: (cart. coord. in units of alat)
               a(1) = (   1.000000   0.000000   0.000000 )
               a(2) = (   0.000000   1.000000   0.000000 )
               a(3) = (   0.000000   0.000000   1.000000 )

     reciprocal axes: (cart. coord. in units 2 pi/alat)
               b(1) = (  1.000000  0.000000  0.000000 )
               b(2) = (  0.000000  1.000000  0.000000 )
               b(3) = (  0.000000  0.000000  1.000000 )

     PseudoPot. # 1 for Au read from file:
     ./Au.blyp-d-hgh.UPF
     MD5 check sum: c10d8bae01f806c36a1643a1c69a8479
     Pseudo is Norm-conserving, Zval = 11.0
     Generated in analytical, separable form
     Using radial grid of 1279 points,  6 beta functions with:
                l(1) =   0
                l(2) =   0
                l(3) =   1
                l(4) =   1
                l(5) =   2
                l(6) =   2

     atomic species   valence    mass     pseudopotential
        Au            11.00    28.08600     Au( 1.00)

     No symmetry found

   Cartesian axes

     site n.     atom                  positions (alat units)
         1           Au  tau(   1) = (  -0.0897354   0.0757407  -0.0318058  )
         2           Au  tau(   2) = (  -0.0440943   0.1974694   0.1883765  )
         3           Au  tau(   3) = (   0.1524946   0.0545344   0.0348318  )
         4           Au  tau(   4) = (   0.2019222   0.2101276   0.2567842  )
         5           Au  tau(   5) = (   0.3782656   0.0619598   0.1500776  )

     number of k points=     1  Marzari-Vanderbilt smearing, width (Ry)=  0.0250
                       cart. coord. in units 2pi/alat
        k(    1) = (   0.0000000   0.0000000   0.0000000), wk =   2.0000000

     Initial potential from superposition of free atoms
     Check: negative starting charge=   -0.006342

     starting charge   54.99940, renormalised to   55.00000

     negative rho (up, down):  6.342E-03 0.000E+00
     Starting wfc are   45 randomized atomic wfcs

     Self-consistent Calculation

     iteration #  1     ecut=    30.00 Ry     beta=0.70
     Davidson diagonalization with overlap
     ethr =  1.00E-02,  avg # of iterations =  3.0

     Threshold (ethr) on eigenvalues was too large:
     Diagonalizing with lowered threshold

     Davidson diagonalization with overlap
     ethr =  3.98E-04,  avg # of iterations =  6.0

     negative rho (up, down):  8.424E-04 0.000E+00

     total energy              =    -329.37962885 Ry
     Harris-Foulkes estimate   =    -329.54561560 Ry
     estimated scf accuracy    <       0.27633407 Ry

[...]

     End of self-consistent calculation

          k = 0.0000 0.0000 0.0000 ( 22119 PWs)   bands (ev):

    -8.3795  -7.7065  -7.6157  -7.1690  -6.9676  -6.7469  -6.7063  -6.4348
    -6.2709  -6.0409  -5.9763  -5.7512  -5.7055  -5.6588  -5.4164  -5.3384
    -5.3232  -5.2182  -5.1812  -5.1756  -5.1595  -5.1361  -4.9911  -4.8943
    -4.8525  -4.6809  -4.4007  -3.7977  -2.5151  -2.1359  -0.5181  -0.1938
     0.5387   0.7647

     the Fermi energy is    -3.7810 ev

!    total energy              =    -329.48882443 Ry
     Harris-Foulkes estimate   =    -329.48882448 Ry
     estimated scf accuracy    <          9.7E-09 Ry

     The total energy is the sum of the following terms:

     one-electron contribution =    -606.44262405 Ry
     hartree contribution      =     324.69880645 Ry
     xc contribution           =     -51.40711056 Ry
     ewald contribution        =       3.66308116 Ry
     smearing contrib. (-TS)   =      -0.00097742 Ry

     convergence has been achieved in  12 iterations

     Forces acting on atoms (Ry/au):

     atom    1 type  1   force =    -0.00092361   -0.00149142   -0.00305632
     atom    2 type  1   force =     0.00011918   -0.00215530   -0.00471111
     atom    3 type  1   force =    -0.00294526    0.00851395    0.01132171
     atom    4 type  1   force =     0.00095010   -0.00086839    0.00003100
     atom    5 type  1   force =     0.00279959   -0.00399885   -0.00358529

     Total force =     0.016940     Total SCF correction =     0.000295

     BFGS Geometry Optimization

     number of scf cycles    =   1
     number of bfgs steps    =   0

     energy   new            =    -329.4888244337 Ry

     new trust radius        =       0.0144686961 bohr
     new conv_thr            =       0.0000000100 Ry

ATOMIC_POSITIONS (bohr)
Au      -1.795631606   1.513322579  -0.639172316
Au      -0.881766823   3.947231705   3.762817889
Au       3.046946741   1.099202953   0.707957714
Au       4.039394096   4.201683613   5.135716000
Au       7.568110592   1.235197149   2.997966712

     Writing output data file pwscf.save
     Check: negative starting charge=   -0.006342
     NEW-OLD atomic charge density approx. for the potential
     Check: negative starting charge=   -0.006343

[...]

     energy   old            =    -329.4888244337 Ry
     energy   new            =    -329.4891026342 Ry

     CASE: energy  _new < energy  _old

     WARNING: bfgs curvature condition failed, Theta= 0.852
     new trust radius        =       0.0159155657 bohr
     new conv_thr            =       0.0000000003 Ry

[...]

     WARNING: bfgs curvature condition failed, Theta= 0.903
     new trust radius        =       0.0541344013 bohr
     new conv_thr            =            1.0E-10 Ry

[...]

     Self-consistent Calculation

[...]

     Threshold (ethr) on eigenvalues was too large:
     Diagonalizing with lowered threshold

     Davidson diagonalization with overlap
     ethr =  2.74E-08,  avg # of iterations =  1.0

[...]

     total energy              =    -329.49326108 Ry
     Harris-Foulkes estimate   =    -329.49326106 Ry
     estimated scf accuracy    <          3.8E-10 Ry

     iteration #  9     ecut=    30.00 Ry     beta=0.70
     Davidson diagonalization with overlap
     ethr =  6.87E-13,  avg # of iterations =  2.0

     End of self-consistent calculation

          k = 0.0000 0.0000 0.0000 ( 22119 PWs)   bands (ev):

    -8.4927  -7.7662  -7.6551  -7.2286  -6.8439  -6.8010  -6.5926  -6.4798
    -6.3063  -6.0705  -5.9431  -5.7629  -5.7197  -5.6814  -5.4606  -5.3585
    -5.3140  -5.2468  -5.1964  -5.1773  -5.1683  -5.1177  -5.0047  -4.9270
    -4.8391  -4.7284  -4.4844  -3.7770  -2.4602  -2.1880  -0.5226  -0.1499
     0.4934   0.7669

     the Fermi energy is    -3.7436 ev

!    total energy              =    -329.49326110 Ry
     Harris-Foulkes estimate   =    -329.49326108 Ry
     estimated scf accuracy    <          1.9E-11 Ry

     The total energy is the sum of the following terms:

     one-electron contribution =    -605.57163245 Ry
     hartree contribution      =     324.22408095 Ry
     xc contribution           =     -51.39537538 Ry
     ewald contribution        =       3.25418929 Ry
     smearing contrib. (-TS)   =      -0.00452351 Ry

     convergence has been achieved in   9 iterations

     Forces acting on atoms (Ry/au):

     atom    1 type  1   force =     0.00185362    0.00144460    0.00165276
     atom    2 type  1   force =    -0.00062916   -0.00232962   -0.00325025
     atom    3 type  1   force =     0.00080182    0.00075917    0.00060174
     atom    4 type  1   force =     0.00017057    0.00067073    0.00079213
     atom    5 type  1   force =    -0.00219685   -0.00054487    0.00020362

     Total force =     0.005700     Total SCF correction =     0.000023

     number of scf cycles    =  50
     number of bfgs steps    =  49

     energy   old            =    -329.4932406258 Ry
     energy   new            =    -329.4932610966 Ry

     CASE: energy  _new < energy  _old

     new trust radius        =       0.0193858785 bohr
     new conv_thr            =            1.0E-10 Ry

ATOMIC_POSITIONS (bohr)
Au      -1.692753132   1.330394788  -0.877347711
Au      -0.758753420   4.461422969   3.159581621
Au       2.961425876   1.026060601   1.069553126
Au       3.947629997   4.143842264   5.316635344
Au       7.519503679   1.034917378   3.296863620

     Writing output data file pwscf.save
     Check: negative starting charge=   -0.006340
     NEW-OLD atomic charge density approx. for the potential
     Check: negative starting charge=   -0.006345

     negative rho (up, down):  4.841E-05 0.000E+00

     Writing output data file pwscf.save

     General routines

     Parallel routines

   This run was terminated on:  14:18:47   3Aug2017

   JOB DONE.