     Program PWSCF v.6.0 (svn rev. 13079) starts on  4Aug2017 at  0:35:42

     Current dimensions of program PWSCF are:
     Max number of different atomic species (ntypx) = 10
     Max number of k-points (npk) =  40000
     Max angular momentum in pseudopotentials (lmaxx) =  3
     Message from routine iosys:
     pot_extrapolation='second-order' not available, using 'atomic'
     Message from routine iosys:
     wfc_extrapolation='second-order' not available, using 'atomic'

     Subspace diagonalization in iterative solution of the eigenvalue problem:
     a serial algorithm will be used

     bravais-lattice index     =            1
     lattice parameter (alat)  =      20.0000  a.u.
     unit-cell volume          =    8000.0000 (a.u.)^3
     number of atoms/cell      =            5
     number of atomic types    =            1
     number of electrons       =        55.00
     number of Kohn-Sham states=           34
     kinetic-energy cutoff     =      30.0000  Ry
     charge density cutoff     =     120.0000  Ry
     convergence threshold     =      1.0E-08
     mixing beta               =       0.7000
     number of iterations used =            8  plain     mixing
     Exchange-correlation      = BLYP ( 1  3  1  3 0 0)
     nstep                     =           50

     celldm(1)=  20.000000  celldm(2)=   0.000000  celldm(3)=   0.000000
     celldm(4)=   0.000000  celldm(5)=   0.000000  celldm(6)=   0.000000

     crystal axes: (cart. coord. in units of alat)
               a(1) = (   1.000000   0.000000   0.000000 )
               a(2) = (   0.000000   1.000000   0.000000 )
               a(3) = (   0.000000   0.000000   1.000000 )

     reciprocal axes: (cart. coord. in units 2 pi/alat)
               b(1) = (  1.000000  0.000000  0.000000 )
               b(2) = (  0.000000  1.000000  0.000000 )
               b(3) = (  0.000000  0.000000  1.000000 )

     PseudoPot. # 1 for Au read from file:
     ./Au.blyp-d-hgh.UPF
     MD5 check sum: c10d8bae01f806c36a1643a1c69a8479
     Pseudo is Norm-conserving, Zval = 11.0
     Generated in analytical, separable form
     Using radial grid of 1279 points,  6 beta functions with:
                l(1) =   0
                l(2) =   0
                l(3) =   1
                l(4) =   1
                l(5) =   2
                l(6) =   2

     atomic species   valence    mass     pseudopotential
        Au            11.00    28.08600     Au( 1.00)

     No symmetry found

   Cartesian axes

     site n.     atom                  positions (alat units)
         1           Au  tau(   1) = (  -0.1145825   0.0410133  -0.0063313  )
         2           Au  tau(   2) = (  -0.0084491   0.1145866   0.2151607  )
         3           Au  tau(   3) = (   0.1396747   0.0636761   0.0153391  )
         4           Au  tau(   4) = (   0.2188913   0.2046372   0.2729805  )
         5           Au  tau(   5) = (   0.3688595   0.0753243   0.1058293  )

     number of k points=     1  Marzari-Vanderbilt smearing, width (Ry)=  0.0250
                       cart. coord. in units 2pi/alat
        k(    1) = (   0.0000000   0.0000000   0.0000000), wk =   2.0000000

     Initial potential from superposition of free atoms
     Check: negative starting charge=   -0.006406

     starting charge   54.99940, renormalised to   55.00000

     negative rho (up, down):  6.406E-03 0.000E+00
     Starting wfc are   45 randomized atomic wfcs

     Self-consistent Calculation

     iteration #  1     ecut=    30.00 Ry     beta=0.70
     Davidson diagonalization with overlap
     ethr =  1.00E-02,  avg # of iterations =  3.0

     Threshold (ethr) on eigenvalues was too large:
     Diagonalizing with lowered threshold

     Davidson diagonalization with overlap
     ethr =  4.12E-04,  avg # of iterations =  7.0

     negative rho (up, down):  8.498E-04 0.000E+00

     total energy              =    -329.36772099 Ry
     Harris-Foulkes estimate   =    -329.53993646 Ry
     estimated scf accuracy    <       0.28597778 Ry

[...]

     End of self-consistent calculation

          k = 0.0000 0.0000 0.0000 ( 22119 PWs)   bands (ev):

    -8.4689  -7.7728  -7.7125  -7.3440  -7.1508  -6.7936  -6.6464  -6.5280
    -6.2239  -6.0929  -5.9455  -5.7430  -5.6400  -5.6220  -5.4991  -5.4188
    -5.2789  -5.2143  -5.1971  -5.1750  -5.1384  -5.1045  -4.9401  -4.9011
    -4.8701  -4.5256  -4.4060  -3.7704  -2.5096  -2.1269  -0.5068  -0.2272
     0.4853   0.7942

     the Fermi energy is    -3.7570 ev

!    total energy              =    -329.48118237 Ry
     Harris-Foulkes estimate   =    -329.48118243 Ry
     estimated scf accuracy    <          5.9E-09 Ry

     The total energy is the sum of the following terms:

     one-electron contribution =    -613.20937838 Ry
     hartree contribution      =     328.06963078 Ry
     xc contribution           =     -51.43521414 Ry
     ewald contribution        =       7.09371523 Ry
     smearing contrib. (-TS)   =       0.00006414 Ry

     convergence has been achieved in  12 iterations

     Forces acting on atoms (Ry/au):

     atom    1 type  1   force =     0.00342160   -0.00178694   -0.00346413
     atom    2 type  1   force =    -0.02174295    0.00148423    0.00816548
     atom    3 type  1   force =    -0.01099298   -0.00363865   -0.01241494
     atom    4 type  1   force =     0.01411857   -0.00110300    0.00019238
     atom    5 type  1   force =     0.01519575    0.00504435    0.00752121

     Total force =     0.037017     Total SCF correction =     0.000380

     BFGS Geometry Optimization

     number of scf cycles    =   1
     number of bfgs steps    =   0

     energy   new            =    -329.4811823738 Ry

     new trust radius        =       0.0232730276 bohr
     new conv_thr            =       0.0000000100 Ry

ATOMIC_POSITIONS (bohr)
Au      -2.288227400   0.818480065  -0.130091131
Au      -0.190724950   2.293216235   4.311378476
Au       2.782501024   1.269883350   0.294366064
Au       4.391945574   4.091641000   5.459802383
Au       7.392384751   1.511531350   2.124106208

     Writing output data file pwscf.save
     Check: negative starting charge=   -0.006406
     NEW-OLD atomic charge density approx. for the potential
     Check: negative starting charge=   -0.006401

[...]

     energy   old            =    -329.4811823738 Ry
     energy   new            =    -329.4823648333 Ry

     CASE: energy  _new < energy  _old

[...]

     WARNING: bfgs curvature condition failed, Theta= 0.939
     new trust radius        =       0.0416127838 bohr
     new conv_thr            =       0.0000000006 Ry

[...]

     CASE: energy  _new > energy  _old

[...]

     WARNING: info=  2 for Hessian
     uphill step: resetting bfgs history

[...]

     WARNING: bfgs curvature condition failed, Theta= 0.987
     new trust radius        =       0.0024312924 bohr
     new conv_thr            =            1.0E-10 Ry

[...]

     Threshold (ethr) on eigenvalues was too large:
     Diagonalizing with lowered threshold

     Davidson diagonalization with overlap
     ethr =  4.53E-08,  avg # of iterations =  1.0

[...]

     Self-consistent Calculation

[...]

     total energy              =    -329.49107146 Ry
     Harris-Foulkes estimate   =    -329.49107148 Ry
     estimated scf accuracy    <          6.6E-10 Ry

     iteration # 10     ecut=    30.00 Ry     beta=0.70
     Davidson diagonalization with overlap
     ethr =  1.20E-12,  avg # of iterations =  2.0

     End of self-consistent calculation

          k = 0.0000 0.0000 0.0000 ( 22119 PWs)   bands (ev):

    -8.4978  -7.7810  -7.6373  -7.2388  -6.8684  -6.8078  -6.6275  -6.4771
    -6.3052  -6.0628  -5.9745  -5.7683  -5.7294  -5.6827  -5.4589  -5.3700
    -5.3158  -5.2410  -5.2016  -5.1925  -5.1707  -5.1285  -5.0090  -4.9206
    -4.8609  -4.7208  -4.4773  -3.7797  -2.5262  -2.1937  -0.5688  -0.1875
     0.5036   0.9167

     the Fermi energy is    -3.7475 ev

!    total energy              =    -329.49107146 Ry
     Harris-Foulkes estimate   =    -329.49107146 Ry
     estimated scf accuracy    <          6.5E-11 Ry

     The total energy is the sum of the following terms:

     one-electron contribution =    -609.15634183 Ry
     hartree contribution      =     326.00859651 Ry
     xc contribution           =     -51.40138430 Ry
     ewald contribution        =       5.06230452 Ry
     smearing contrib. (-TS)   =      -0.00424637 Ry

     convergence has been achieved in  10 iterations

     Forces acting on atoms (Ry/au):

     atom    1 type  1   force =    -0.00005671   -0.00149963   -0.00294908
     atom    2 type  1   force =     0.00047330    0.00211810    0.00295419
     atom    3 type  1   force =     0.00077599   -0.00005416   -0.00017049
     atom    4 type  1   force =     0.00040385   -0.00131568   -0.00058127
     atom    5 type  1   force =    -0.00159643    0.00075137    0.00074666

     Total force =     0.005561     Total SCF correction =     0.000032

     number of scf cycles    =  50
     number of bfgs steps    =  48

     energy   old            =    -329.4910028529 Ry
     energy   new            =    -329.4910714573 Ry

     CASE: energy  _new < energy  _old

     new trust radius        =       0.0207211741 bohr
     new conv_thr            =            1.0E-10 Ry

ATOMIC_POSITIONS (bohr)
Au      -1.916817410   0.557833965  -0.439827464
Au      -0.818039162   2.648506896   4.133439435
Au       2.993140736   1.147632422   0.659297361
Au       4.105097793   3.625412758   5.492607627
Au       7.724497043   2.005365960   2.214045040

     Writing output data file pwscf.save
     Check: negative starting charge=   -0.006479
     NEW-OLD atomic charge density approx. for the potential
     Check: negative starting charge=   -0.006464

     negative rho (up, down):  1.087E-04 0.000E+00

     Writing output data file pwscf.save

     General routines

     Parallel routines

   This run was terminated on:   0:37:50   4Aug2017

   JOB DONE.