     Program PWSCF v.6.0 (svn rev. 13079) starts on  4Aug2017 at  4: 9:38

     Current dimensions of program PWSCF are:
     Max number of different atomic species (ntypx) = 10
     Max number of k-points (npk) =  40000
     Max angular momentum in pseudopotentials (lmaxx) =  3
     Message from routine iosys:
     pot_extrapolation='second-order' not available, using 'atomic'
     Message from routine iosys:
     wfc_extrapolation='second-order' not available, using 'atomic'

     Subspace diagonalization in iterative solution of the eigenvalue problem:
     a serial algorithm will be used

     bravais-lattice index     =            1
     lattice parameter (alat)  =      20.0000  a.u.
     unit-cell volume          =    8000.0000 (a.u.)^3
     number of atoms/cell      =            5
     number of atomic types    =            1
     number of electrons       =        55.00
     number of Kohn-Sham states=           34
     kinetic-energy cutoff     =      30.0000  Ry
     charge density cutoff     =     120.0000  Ry
     convergence threshold     =      1.0E-08
     mixing beta               =       0.7000
     number of iterations used =            8  plain     mixing
     Exchange-correlation      = BLYP ( 1  3  1  3 0 0)
     nstep                     =           50

     celldm(1)=  20.000000  celldm(2)=   0.000000  celldm(3)=   0.000000
     celldm(4)=   0.000000  celldm(5)=   0.000000  celldm(6)=   0.000000

     crystal axes: (cart. coord. in units of alat)
               a(1) = (   1.000000   0.000000   0.000000 )
               a(2) = (   0.000000   1.000000   0.000000 )
               a(3) = (   0.000000   0.000000   1.000000 )

     reciprocal axes: (cart. coord. in units 2 pi/alat)
               b(1) = (  1.000000  0.000000  0.000000 )
               b(2) = (  0.000000  1.000000  0.000000 )
               b(3) = (  0.000000  0.000000  1.000000 )

     PseudoPot. # 1 for Au read from file:
     ./Au.blyp-d-hgh.UPF
     MD5 check sum: c10d8bae01f806c36a1643a1c69a8479
     Pseudo is Norm-conserving, Zval = 11.0
     Generated in analytical, separable form
     Using radial grid of 1279 points,  6 beta functions with:
                l(1) =   0
                l(2) =   0
                l(3) =   1
                l(4) =   1
                l(5) =   2
                l(6) =   2

     atomic species   valence    mass     pseudopotential
        Au            11.00    28.08600     Au( 1.00)

     No symmetry found

   Cartesian axes

     site n.     atom                  positions (alat units)
         1           Au  tau(   1) = (  -0.0585843   0.0366575  -0.0249311  )
         2           Au  tau(   2) = (  -0.0006939   0.1714048   0.2063497  )
         3           Au  tau(   3) = (   0.1528564   0.1508596  -0.0132797  )
         4           Au  tau(   4) = (   0.2279037   0.2353307   0.2768254  )
         5           Au  tau(   5) = (   0.2991896   0.0104627   0.1479502  )

     number of k points=     1  Marzari-Vanderbilt smearing, width (Ry)=  0.0250
                       cart. coord. in units 2pi/alat
        k(    1) = (   0.0000000   0.0000000   0.0000000), wk =   2.0000000

     Initial potential from superposition of free atoms
     Check: negative starting charge=   -0.006036

     starting charge   54.99940, renormalised to   55.00000

     negative rho (up, down):  6.036E-03 0.000E+00
     Starting wfc are   45 randomized atomic wfcs

     Self-consistent Calculation

     iteration #  1     ecut=    30.00 Ry     beta=0.70
     Davidson diagonalization with overlap
     ethr =  1.00E-02,  avg # of iterations =  5.0

     Threshold (ethr) on eigenvalues was too large:
     Diagonalizing with lowered threshold

     Davidson diagonalization with overlap
     ethr =  3.59E-04,  avg # of iterations =  3.0

     negative rho (up, down):  7.770E-04 0.000E+00

     total energy              =    -329.33140233 Ry
     Harris-Foulkes estimate   =    -329.48087314 Ry
     estimated scf accuracy    <       0.25211623 Ry

[...]

     End of self-consistent calculation

          k = 0.0000 0.0000 0.0000 ( 22119 PWs)   bands (ev):

    -8.0971  -7.6943  -7.3112  -7.1493  -6.9774  -6.7504  -6.7174  -6.5101
    -6.3133  -6.0617  -5.8933  -5.6618  -5.5931  -5.4912  -5.4374  -5.3363
    -5.2693  -5.2285  -5.1161  -5.0690  -5.0262  -4.9897  -4.9048  -4.8866
    -4.6339  -4.5691  -4.1610  -3.7031  -2.6642  -2.2871  -0.2915  -0.1509
     0.2929   0.4868

     the Fermi energy is    -3.7013 ev

!    total energy              =    -329.43041429 Ry
     Harris-Foulkes estimate   =    -329.43041433 Ry
     estimated scf accuracy    <          7.2E-09 Ry

     The total energy is the sum of the following terms:

     one-electron contribution =    -611.26180838 Ry
     hartree contribution      =     327.25589908 Ry
     xc contribution           =     -51.39978151 Ry
     ewald contribution        =       5.97342159 Ry
     smearing contrib. (-TS)   =       0.00185493 Ry

     convergence has been achieved in  12 iterations

     Forces acting on atoms (Ry/au):

     atom    1 type  1   force =    -0.04337190   -0.00756690    0.00279965
     atom    2 type  1   force =    -0.01826784   -0.01343075   -0.02193468
     atom    3 type  1   force =     0.03638108    0.00829162    0.00950679
     atom    4 type  1   force =     0.02220160   -0.01069885    0.00019425
     atom    5 type  1   force =     0.00305705    0.02340489    0.00943398

     Total force =     0.075351     Total SCF correction =     0.000351

     BFGS Geometry Optimization

     number of scf cycles    =   1
     number of bfgs steps    =   0

     energy   new            =    -329.4304142892 Ry

     new trust radius        =       0.0441159548 bohr
     new conv_thr            =       0.0000000100 Ry

ATOMIC_POSITIONS (bohr)
Au      -1.215056897   0.725582099  -0.495823349
Au      -0.032145835   3.414665245   4.105059318
Au       3.093508079   3.025482617  -0.256086205
Au       4.580276601   4.695915150   5.536702253
Au       5.986849051   0.232657889   2.968436984

     Writing output data file pwscf.save
     Check: negative starting charge=   -0.006036
     NEW-OLD atomic charge density approx. for the potential
     Check: negative starting charge=   -0.006008

[...]

     energy   old            =    -329.4304142892 Ry
     energy   new            =    -329.4352499510 Ry

     CASE: energy  _new < energy  _old

[...]

     WARNING: bfgs curvature condition failed, Theta= 0.760
     new trust radius        =       0.0412323262 bohr
     new conv_thr            =       0.0000000002 Ry

[...]

     WARNING: bfgs curvature condition failed, Theta= 0.884
     new trust radius        =       0.0258375206 bohr
     new conv_thr            =       0.0000000002 Ry

[...]

     Self-consistent Calculation

[...]

     total energy              =    -329.49211434 Ry
     Harris-Foulkes estimate   =    -329.49211439 Ry
     estimated scf accuracy    <          6.4E-09 Ry

     iteration # 10     ecut=    30.00 Ry     beta=0.70
     Davidson diagonalization with overlap
     ethr =  1.16E-11,  avg # of iterations =  2.0

     End of self-consistent calculation

          k = 0.0000 0.0000 0.0000 ( 22119 PWs)   bands (ev):

    -8.4882  -7.7766  -7.6673  -7.2502  -6.8651  -6.7948  -6.6257  -6.4889
    -6.3119  -6.0592  -5.9547  -5.7629  -5.7208  -5.6890  -5.4616  -5.3777
    -5.3168  -5.2489  -5.2000  -5.1783  -5.1720  -5.1206  -5.0102  -4.9258
    -4.8283  -4.7296  -4.4748  -3.7749  -2.4877  -2.1856  -0.5380  -0.1599
     0.4951   0.7981

     the Fermi energy is    -3.7424 ev

!    total energy              =    -329.49211434 Ry
     Harris-Foulkes estimate   =    -329.49211434 Ry
     estimated scf accuracy    <          2.4E-10 Ry

     The total energy is the sum of the following terms:

     one-electron contribution =    -607.70304287 Ry
     hartree contribution      =     325.28263741 Ry
     xc contribution           =     -51.39921584 Ry
     ewald contribution        =       4.33184503 Ry
     smearing contrib. (-TS)   =      -0.00433808 Ry

     convergence has been achieved in  10 iterations

     Forces acting on atoms (Ry/au):

     atom    1 type  1   force =     0.00198456   -0.00181459   -0.00278288
     atom    2 type  1   force =    -0.00115642    0.00026261    0.00115553
     atom    3 type  1   force =     0.00005921   -0.00042247    0.00163343
     atom    4 type  1   force =     0.00229095    0.00124530    0.00004821
     atom    5 type  1   force =    -0.00317830    0.00072915   -0.00005429

     Total force =     0.006165     Total SCF correction =     0.000072

     number of scf cycles    =  50
     number of bfgs steps    =  49

     energy   old            =    -329.4919178339 Ry
     energy   new            =    -329.4921143429 Ry

     CASE: energy  _new < energy  _old

     new trust radius        =       0.0550493976 bohr
     new conv_thr            =       0.0000000002 Ry

ATOMIC_POSITIONS (bohr)
Au      -1.757126904   1.450482410  -0.831501129
Au      -0.619672447   4.160422792   3.423729130
Au       3.047681841   1.305529349   0.815540000
Au       4.071583757   3.867110582   5.569483581
Au       7.670964752   1.310757867   2.881037418

     Writing output data file pwscf.save
     Check: negative starting charge=   -0.006421
     NEW-OLD atomic charge density approx. for the potential
     Check: negative starting charge=   -0.006414

     negative rho (up, down):  9.943E-04 0.000E+00

     Writing output data file pwscf.save

     General routines

     Parallel routines

   This run was terminated on:   4:11:57   4Aug2017

   JOB DONE.