     Program PWSCF v.6.0 (svn rev. 13079) starts on  3Aug2017 at 23:59:32

     Current dimensions of program PWSCF are:
     Max number of different atomic species (ntypx) = 10
     Max number of k-points (npk) =  40000
     Max angular momentum in pseudopotentials (lmaxx) =  3
     Message from routine iosys:
     pot_extrapolation='second-order' not available, using 'atomic'
     Message from routine iosys:
     wfc_extrapolation='second-order' not available, using 'atomic'

     Subspace diagonalization in iterative solution of the eigenvalue problem:
     a serial algorithm will be used

     bravais-lattice index     =            1
     lattice parameter (alat)  =      20.0000  a.u.
     unit-cell volume          =    8000.0000 (a.u.)^3
     number of atoms/cell      =            5
     number of atomic types    =            1
     number of electrons       =        55.00
     number of Kohn-Sham states=           34
     kinetic-energy cutoff     =      30.0000  Ry
     charge density cutoff     =     120.0000  Ry
     convergence threshold     =      1.0E-08
     mixing beta               =       0.7000
     number of iterations used =            8  plain     mixing
     Exchange-correlation      = BLYP ( 1  3  1  3 0 0)
     nstep                     =           50

     celldm(1)=  20.000000  celldm(2)=   0.000000  celldm(3)=   0.000000
     celldm(4)=   0.000000  celldm(5)=   0.000000  celldm(6)=   0.000000

     crystal axes: (cart. coord. in units of alat)
               a(1) = (   1.000000   0.000000   0.000000 )
               a(2) = (   0.000000   1.000000   0.000000 )
               a(3) = (   0.000000   0.000000   1.000000 )

     reciprocal axes: (cart. coord. in units 2 pi/alat)
               b(1) = (  1.000000  0.000000  0.000000 )
               b(2) = (  0.000000  1.000000  0.000000 )
               b(3) = (  0.000000  0.000000  1.000000 )

     PseudoPot. # 1 for Au read from file:
     ./Au.blyp-d-hgh.UPF
     MD5 check sum: c10d8bae01f806c36a1643a1c69a8479
     Pseudo is Norm-conserving, Zval = 11.0
     Generated in analytical, separable form
     Using radial grid of 1279 points,  6 beta functions with:
                l(1) =   0
                l(2) =   0
                l(3) =   1
                l(4) =   1
                l(5) =   2
                l(6) =   2

     atomic species   valence    mass     pseudopotential
        Au            11.00    28.08600     Au( 1.00)

     No symmetry found

   Cartesian axes

     site n.     atom                  positions (alat units)
         1           Au  tau(   1) = (  -0.1127180   0.1316062  -0.0223551  )
         2           Au  tau(   2) = (  -0.0202505   0.1952131   0.2017930  )
         3           Au  tau(   3) = (   0.1410476   0.0866012  -0.0012242  )
         4           Au  tau(   4) = (   0.2264408   0.2166817   0.2741178  )
         5           Au  tau(   5) = (   0.3789399   0.0662493   0.1320318  )

     number of k points=     1  Marzari-Vanderbilt smearing, width (Ry)=  0.0250
                       cart. coord. in units 2pi/alat
        k(    1) = (   0.0000000   0.0000000   0.0000000), wk =   2.0000000

     Initial potential from superposition of free atoms
     Check: negative starting charge=   -0.006239

     starting charge   54.99940, renormalised to   55.00000

     negative rho (up, down):  6.239E-03 0.000E+00
     Starting wfc are   45 randomized atomic wfcs

     Self-consistent Calculation

     iteration #  1     ecut=    30.00 Ry     beta=0.70
     Davidson diagonalization with overlap
     ethr =  1.00E-02,  avg # of iterations =  3.0

     Threshold (ethr) on eigenvalues was too large:
     Diagonalizing with lowered threshold

     Davidson diagonalization with overlap
     ethr =  4.03E-04,  avg # of iterations =  6.0

     negative rho (up, down):  8.371E-04 0.000E+00

     total energy              =    -329.35707752 Ry
     Harris-Foulkes estimate   =    -329.52445962 Ry
     estimated scf accuracy    <       0.27700400 Ry

[...]

     End of self-consistent calculation

          k = 0.0000 0.0000 0.0000 ( 22119 PWs)   bands (ev):

    -8.0007  -7.4612  -7.3772  -7.0200  -6.8511  -6.6460  -6.5176  -6.2932
    -6.1481  -6.0358  -5.8154  -5.6906  -5.6138  -5.5569  -5.4391  -5.3668
    -5.3024  -5.2169  -5.1812  -5.1597  -5.1398  -5.1243  -5.0677  -4.9738
    -4.8500  -4.6475  -4.4336  -3.8158  -2.7432  -2.1764  -0.4555  -0.2316
     0.4520   0.6362

     the Fermi energy is    -3.7992 ev

!    total energy              =    -329.47237472 Ry
     Harris-Foulkes estimate   =    -329.47237472 Ry
     estimated scf accuracy    <          3.8E-09 Ry

     The total energy is the sum of the following terms:

     one-electron contribution =    -589.22637829 Ry
     hartree contribution      =     316.19703779 Ry
     xc contribution           =     -51.35555182 Ry
     ewald contribution        =      -5.08667969 Ry
     smearing contrib. (-TS)   =      -0.00080271 Ry

     convergence has been achieved in  12 iterations

     Forces acting on atoms (Ry/au):

     atom    1 type  1   force =     0.00819214   -0.00567166   -0.01370825
     atom    2 type  1   force =     0.01593378   -0.00160786   -0.00038399
     atom    3 type  1   force =     0.00645341    0.00685465    0.03119713
     atom    4 type  1   force =     0.00106913   -0.00709378   -0.00616601
     atom    5 type  1   force =    -0.03164846    0.00751865   -0.01093888

     Total force =     0.053600     Total SCF correction =     0.000332

     BFGS Geometry Optimization

     number of scf cycles    =   1
     number of bfgs steps    =   0

     energy   new            =    -329.4723747219 Ry

     new trust radius        =       0.0343192987 bohr
     new conv_thr            =       0.0000000100 Ry

ATOMIC_POSITIONS (bohr)
Au      -2.246168864   2.626453339  -0.460811254
Au      -0.389077221   3.902654139   4.035477015
Au       2.827405413   1.738877645   0.006714128
Au       4.529886131   4.326540224   5.476190993
Au       7.547149540   1.332504653   2.629696119

     Writing output data file pwscf.save
     Check: negative starting charge=   -0.006239
     NEW-OLD atomic charge density approx. for the potential
     Check: negative starting charge=   -0.006231

[...]

     energy   old            =    -329.4723747219 Ry
     energy   new            =    -329.4751092442 Ry

     CASE: energy  _new < energy  _old

     WARNING: bfgs curvature condition failed, Theta= 0.886
     new trust radius        =       0.0377512286 bohr
     new conv_thr            =       0.0000000027 Ry

[...]

     WARNING: bfgs curvature condition failed, Theta= 0.945
     new trust radius        =       0.0946550995 bohr
     new conv_thr            =            1.0E-10 Ry

[...]

     CASE: energy  _new > energy  _old

[...]

     number of scf cycles    =  40
     number of bfgs steps    =  38

     energy   old            =    -329.4922212802 Ry
     energy   new            =    -329.4922285226 Ry

     CASE: energy  _new < energy  _old

     new trust radius        =       0.0115668681 bohr
     new conv_thr            =            1.0E-10 Ry

ATOMIC_POSITIONS (bohr)
Au      -1.967604136   2.620722208  -0.716799161
Au      -0.497584592   4.466173409   3.898976354
Au       2.851899465   1.886832450   0.595900610
Au       4.319684311   3.624429041   5.587898977
Au       7.562799951   1.328872892   2.321290220

     Writing output data file pwscf.save
     Check: negative starting charge=   -0.006430
     NEW-OLD atomic charge density approx. for the potential
     Check: negative starting charge=   -0.006423

[...]

     Self-consistent Calculation

[...]

     Threshold (ethr) on eigenvalues was too large:
     Diagonalizing with lowered threshold

     Davidson diagonalization with overlap
     ethr =  9.09E-08,  avg # of iterations =  1.0

     negative rho (up, down):  1.312E-07 0.000E+00

[...]

     total energy              =    -329.49223972 Ry
     Harris-Foulkes estimate   =    -329.49223973 Ry
     estimated scf accuracy    <          2.5E-10 Ry

     iteration # 10     ecut=    30.00 Ry     beta=0.70
     Davidson diagonalization with overlap
     ethr =  4.63E-13,  avg # of iterations =  2.0

     End of self-consistent calculation

          k = 0.0000 0.0000 0.0000 ( 22119 PWs)   bands (ev):

    -8.5184  -7.7896  -7.6652  -7.2374  -6.8656  -6.8191  -6.6082  -6.4905
    -6.3077  -6.0762  -5.9530  -5.7711  -5.7273  -5.6888  -5.4576  -5.3618
    -5.3159  -5.2470  -5.2026  -5.1821  -5.1667  -5.1201  -5.0027  -4.9248
    -4.8408  -4.7240  -4.4794  -3.7835  -2.4746  -2.1839  -0.5461  -0.1979
     0.5287   0.7963

     the Fermi energy is    -3.7516 ev

!    total energy              =    -329.49223969 Ry
     Harris-Foulkes estimate   =    -329.49223972 Ry
     estimated scf accuracy    <          1.9E-11 Ry

     The total energy is the sum of the following terms:

     one-electron contribution =    -608.42828403 Ry
     hartree contribution      =     325.64372358 Ry
     xc contribution           =     -51.40208824 Ry
     ewald contribution        =       4.69857918 Ry
     smearing contrib. (-TS)   =      -0.00417018 Ry

     convergence has been achieved in  10 iterations

     Forces acting on atoms (Ry/au):

     atom    1 type  1   force =     0.00071899    0.00040555   -0.00008932
     atom    2 type  1   force =    -0.00079677   -0.00029650   -0.00049344
     atom    3 type  1   force =    -0.00003587    0.00034597    0.00013410
     atom    4 type  1   force =     0.00076697   -0.00005809   -0.00005604
     atom    5 type  1   force =    -0.00065332   -0.00039692    0.00050470

     Total force =     0.001797     Total SCF correction =     0.000015

     bfgs converged in  41 scf cycles and  39 bfgs steps
     (criteria: energy <  1.0E-04, force <  1.0E-03)

     End of BFGS Geometry Optimization

     Final energy   =    -329.4922396938 Ry
Begin final coordinates

ATOMIC_POSITIONS (bohr)
Au      -1.967604136   2.620722208  -0.716799161
Au      -0.497584592   4.466173409   3.898976354
Au       2.851899465   1.886832450   0.595900610
Au       4.319684311   3.624429041   5.587898977
Au       7.562799951   1.328872892   2.321290220
End final coordinates

     Writing output data file pwscf.save

     General routines

     Parallel routines

   This run was terminated on:   0: 1:30   4Aug2017

   JOB DONE.