     Program PWSCF v.6.0 (svn rev. 13079) starts on  4Aug2017 at  6:39:30

     Current dimensions of program PWSCF are:
     Max number of different atomic species (ntypx) = 10
     Max number of k-points (npk) =  40000
     Max angular momentum in pseudopotentials (lmaxx) =  3
     Message from routine iosys:
     pot_extrapolation='second-order' not available, using 'atomic'
     Message from routine iosys:
     wfc_extrapolation='second-order' not available, using 'atomic'

     Subspace diagonalization in iterative solution of the eigenvalue problem:
     a serial algorithm will be used

     bravais-lattice index     =            1
     lattice parameter (alat)  =      20.0000  a.u.
     unit-cell volume          =    8000.0000 (a.u.)^3
     number of atoms/cell      =            5
     number of atomic types    =            1
     number of electrons       =        55.00
     number of Kohn-Sham states=           34
     kinetic-energy cutoff     =      30.0000  Ry
     charge density cutoff     =     120.0000  Ry
     convergence threshold     =      1.0E-08
     mixing beta               =       0.7000
     number of iterations used =            8  plain     mixing
     Exchange-correlation      = BLYP ( 1  3  1  3 0 0)
     nstep                     =           50

     celldm(1)=  20.000000  celldm(2)=   0.000000  celldm(3)=   0.000000
     celldm(4)=   0.000000  celldm(5)=   0.000000  celldm(6)=   0.000000

     crystal axes: (cart. coord. in units of alat)
               a(1) = (   1.000000   0.000000   0.000000 )
               a(2) = (   0.000000   1.000000   0.000000 )
               a(3) = (   0.000000   0.000000   1.000000 )

     reciprocal axes: (cart. coord. in units 2 pi/alat)
               b(1) = (  1.000000  0.000000  0.000000 )
               b(2) = (  0.000000  1.000000  0.000000 )
               b(3) = (  0.000000  0.000000  1.000000 )

     PseudoPot. # 1 for Au read from file:
     ./Au.blyp-d-hgh.UPF
     MD5 check sum: c10d8bae01f806c36a1643a1c69a8479
     Pseudo is Norm-conserving, Zval = 11.0
     Generated in analytical, separable form
     Using radial grid of 1279 points,  6 beta functions with:
                l(1) =   0
                l(2) =   0
                l(3) =   1
                l(4) =   1
                l(5) =   2
                l(6) =   2

     atomic species   valence    mass     pseudopotential
        Au            11.00    28.08600     Au( 1.00)

     No symmetry found

   Cartesian axes

     site n.     atom                  positions (alat units)
         1           Au  tau(   1) = (   0.1614394  -0.0040302   0.0085270  )
         2           Au  tau(   2) = (  -0.0054209   0.2394235   0.1708045  )
         3           Au  tau(   3) = (   0.1687650   0.1901179  -0.0258288  )
         4           Au  tau(   4) = (   0.2598690   0.2334287   0.2188668  )
         5           Au  tau(   5) = (   0.2178504  -0.0179619   0.2023080  )

     number of k points=     1  Marzari-Vanderbilt smearing, width (Ry)=  0.0250
                       cart. coord. in units 2pi/alat
        k(    1) = (   0.0000000   0.0000000   0.0000000), wk =   2.0000000

     Initial potential from superposition of free atoms
     Check: negative starting charge=   -0.006417

     starting charge   54.99940, renormalised to   55.00000

     negative rho (up, down):  6.417E-03 0.000E+00
     Starting wfc are   45 randomized atomic wfcs

     Self-consistent Calculation

     iteration #  1     ecut=    30.00 Ry     beta=0.70
     Davidson diagonalization with overlap
     ethr =  1.00E-02,  avg # of iterations =  5.0

     negative rho (up, down):  4.932E-04 0.000E+00

     total energy              =    -328.69694427 Ry
     Harris-Foulkes estimate   =    -329.09997401 Ry
     estimated scf accuracy    <       0.60156842 Ry

[...]

     End of self-consistent calculation

          k = 0.0000 0.0000 0.0000 ( 22119 PWs)   bands (ev):

   -10.7259 -10.4205  -9.9138  -9.1306  -8.6947  -7.8838  -7.2388  -7.0661
    -6.8196  -6.6189  -6.4846  -6.3387  -6.0013  -5.8038  -5.5372  -5.5156
    -5.3660  -5.2471  -5.1352  -5.1074  -4.9954  -4.9635  -4.8166  -4.6172
    -4.5575  -4.0740  -3.8802  -3.5533  -3.1342  -1.3471  -0.4577  -0.2657
    -0.1319   0.5382

     the Fermi energy is    -3.5568 ev

!    total energy              =    -328.98484914 Ry
     Harris-Foulkes estimate   =    -328.98484912 Ry
     estimated scf accuracy    <          9.5E-09 Ry

     The total energy is the sum of the following terms:

     one-electron contribution =    -679.02822875 Ry
     hartree contribution      =     360.19428539 Ry
     xc contribution           =     -51.73077861 Ry
     ewald contribution        =      41.57588916 Ry
     smearing contrib. (-TS)   =       0.00398367 Ry

     convergence has been achieved in  14 iterations

     Forces acting on atoms (Ry/au):

     atom    1 type  1   force =    -0.15871922   -0.62763743   -0.38124695
     atom    2 type  1   force =     0.02220133    0.01603969    0.00480103
     atom    3 type  1   force =     0.00405854    0.64603602   -0.14505672
     atom    4 type  1   force =    -0.01327994    0.03179408    0.03293849
     atom    5 type  1   force =     0.14573930   -0.06623237    0.48856415

     Total force =     1.127057     Total SCF correction =     0.000287

     BFGS Geometry Optimization

     number of scf cycles    =   1
     number of bfgs steps    =   0

     energy   new            =    -328.9848491372 Ry

     new trust radius        =       0.5000000000 bohr
     new conv_thr            =       0.0000000100 Ry

ATOMIC_POSITIONS (bohr)
Au       3.123158967  -0.498298247  -0.083179781
Au      -0.093643964   4.799143453   3.419285096
Au       3.378001967   4.232296560  -0.613111604
Au       5.188543168   4.689732038   4.399256648
Au       4.453996861  -0.403315804   4.371301640

     Writing output data file pwscf.save
     Check: negative starting charge=   -0.006417
     NEW-OLD atomic charge density approx. for the potential
     Check: negative starting charge=   -0.006275

[...]

     energy   old            =    -328.9848491372 Ry
     energy   new            =    -329.3834573442 Ry

     CASE: energy  _new < energy  _old

[...]

     iteration #  1     ecut=    30.00 Ry     beta=0.70
     Davidson diagonalization with overlap
     c_bands:  1 eigenvalues not converged
     ethr =  1.00E-06,  avg # of iterations = 20.0

[...]

     CASE: energy  _new < energy  _old

[...]

     CASE: energy  _new > energy  _old

[...]

     new trust radius        =       0.0000723702 bohr

     trust_radius < trust_radius_min

     resetting bfgs history

     new conv_thr            =       0.0000000021 Ry

[...]

     Threshold (ethr) on eigenvalues was too large:
     Diagonalizing with lowered threshold

     Davidson diagonalization with overlap
     ethr =  1.16E-08,  avg # of iterations =  2.0

[...]

     Threshold (ethr) on eigenvalues was too large:
     Diagonalizing with lowered threshold

     Davidson diagonalization with overlap
     ethr =  1.15E-08,  avg # of iterations =  2.0

[...]

     new trust radius        =       0.0000032671 bohr

     trust_radius < trust_radius_min

     resetting bfgs history

     new conv_thr            =       0.0000000021 Ry

[...]

     Self-consistent Calculation

[...]

     total energy              =    -329.48351737 Ry
     Harris-Foulkes estimate   =    -329.48351749 Ry
     estimated scf accuracy    <       0.00000001 Ry

     iteration #  8     ecut=    30.00 Ry     beta=0.70
     Davidson diagonalization with overlap
     ethr =  2.12E-11,  avg # of iterations =  2.0

     End of self-consistent calculation

          k = 0.0000 0.0000 0.0000 ( 22119 PWs)   bands (ev):

    -8.2226  -7.4893  -7.4225  -7.2459  -6.9951  -6.6666  -6.4128  -6.3801
    -6.2316  -5.9886  -5.8452  -5.6945  -5.6085  -5.5596  -5.4679  -5.4305
    -5.3057  -5.2394  -5.2052  -5.1934  -5.1175  -5.1074  -5.0521  -4.9926
    -4.9415  -4.6637  -4.4925  -3.7451  -2.6595  -2.1159  -0.4595  -0.2059
     0.3058   0.6776

     the Fermi energy is    -3.7082 ev

!    total energy              =    -329.48351730 Ry
     Harris-Foulkes estimate   =    -329.48351737 Ry
     estimated scf accuracy    <          1.3E-09 Ry

     The total energy is the sum of the following terms:

     one-electron contribution =    -589.44922533 Ry
     hartree contribution      =     316.23676511 Ry
     xc contribution           =     -51.35392438 Ry
     ewald contribution        =      -4.91178737 Ry
     smearing contrib. (-TS)   =      -0.00534532 Ry

     convergence has been achieved in   8 iterations

     Forces acting on atoms (Ry/au):

     atom    1 type  1   force =    -0.00204607    0.01598034    0.01104009
     atom    2 type  1   force =     0.01012678   -0.01629946   -0.00747373
     atom    3 type  1   force =    -0.00459727   -0.00673352   -0.00338511
     atom    4 type  1   force =     0.00455342   -0.00549928    0.00624248
     atom    5 type  1   force =    -0.00803686    0.01255191   -0.00642374

     Total force =     0.035168     Total SCF correction =     0.000186

     number of scf cycles    =  50
     number of bfgs steps    =  21

     energy   old            =    -329.4849966513 Ry
     energy   new            =    -329.4835173025 Ry

     CASE: energy  _new > energy  _old

     new trust radius        =       0.0070131497 bohr
     new conv_thr            =       0.0000000021 Ry

ATOMIC_POSITIONS (bohr)
Au       3.895251377  -1.419511067  -0.959930574
Au       0.472812168   7.523241293   3.097039970
Au       2.188853919   3.309295859   0.348169033
Au       3.840694385   4.095234101   5.080760478
Au       5.652445150  -0.688702187   3.927513092

     Writing output data file pwscf.save
     Check: negative starting charge=   -0.006185
     NEW-OLD atomic charge density approx. for the potential
     Check: negative starting charge=   -0.006200

     negative rho (up, down):  5.254E-05 0.000E+00

     Writing output data file pwscf.save

     General routines

     Parallel routines

   This run was terminated on:   6:41:47   4Aug2017

   JOB DONE.