     Program PWSCF v.6.0 (svn rev. 13079) starts on  4Aug2017 at  3:59:20

     Current dimensions of program PWSCF are:
     Max number of different atomic species (ntypx) = 10
     Max number of k-points (npk) =  40000
     Max angular momentum in pseudopotentials (lmaxx) =  3
     Message from routine iosys:
     pot_extrapolation='second-order' not available, using 'atomic'
     Message from routine iosys:
     wfc_extrapolation='second-order' not available, using 'atomic'

     Subspace diagonalization in iterative solution of the eigenvalue problem:
     a serial algorithm will be used

     bravais-lattice index     =            1
     lattice parameter (alat)  =      20.0000  a.u.
     unit-cell volume          =    8000.0000 (a.u.)^3
     number of atoms/cell      =            5
     number of atomic types    =            1
     number of electrons       =        55.00
     number of Kohn-Sham states=           34
     kinetic-energy cutoff     =      30.0000  Ry
     charge density cutoff     =     120.0000  Ry
     convergence threshold     =      1.0E-08
     mixing beta               =       0.7000
     number of iterations used =            8  plain     mixing
     Exchange-correlation      = BLYP ( 1  3  1  3 0 0)
     nstep                     =           50

     celldm(1)=  20.000000  celldm(2)=   0.000000  celldm(3)=   0.000000
     celldm(4)=   0.000000  celldm(5)=   0.000000  celldm(6)=   0.000000

     crystal axes: (cart. coord. in units of alat)
               a(1) = (   1.000000   0.000000   0.000000 )
               a(2) = (   0.000000   1.000000   0.000000 )
               a(3) = (   0.000000   0.000000   1.000000 )

     reciprocal axes: (cart. coord. in units 2 pi/alat)
               b(1) = (  1.000000  0.000000  0.000000 )
               b(2) = (  0.000000  1.000000  0.000000 )
               b(3) = (  0.000000  0.000000  1.000000 )

     PseudoPot. # 1 for Au read from file:
     ./Au.blyp-d-hgh.UPF
     MD5 check sum: c10d8bae01f806c36a1643a1c69a8479
     Pseudo is Norm-conserving, Zval = 11.0
     Generated in analytical, separable form
     Using radial grid of 1279 points,  6 beta functions with:
                l(1) =   0
                l(2) =   0
                l(3) =   1
                l(4) =   1
                l(5) =   2
                l(6) =   2

     atomic species   valence    mass     pseudopotential
        Au            11.00    28.08600     Au( 1.00)

     No symmetry found

   Cartesian axes

     site n.     atom                  positions (alat units)
         1           Au  tau(   1) = (  -0.0459451   0.0275286  -0.0044382  )
         2           Au  tau(   2) = (  -0.0248061   0.1744704   0.1956228  )
         3           Au  tau(   3) = (   0.1679154   0.1516188   0.0501784  )
         4           Au  tau(   4) = (   0.2208864   0.2330297   0.2626407  )
         5           Au  tau(   5) = (   0.3416885   0.0151315   0.1577759  )

     number of k points=     1  Marzari-Vanderbilt smearing, width (Ry)=  0.0250
                       cart. coord. in units 2pi/alat
        k(    1) = (   0.0000000   0.0000000   0.0000000), wk =   2.0000000

     Initial potential from superposition of free atoms
     Check: negative starting charge=   -0.006277

     starting charge   54.99940, renormalised to   55.00000

     negative rho (up, down):  6.277E-03 0.000E+00
     Starting wfc are   45 randomized atomic wfcs

     Self-consistent Calculation

     iteration #  1     ecut=    30.00 Ry     beta=0.70
     Davidson diagonalization with overlap
     ethr =  1.00E-02,  avg # of iterations =  3.0

     Threshold (ethr) on eigenvalues was too large:
     Diagonalizing with lowered threshold

     Davidson diagonalization with overlap
     ethr =  4.16E-04,  avg # of iterations =  3.0

     negative rho (up, down):  7.754E-04 0.000E+00

     total energy              =    -329.29750501 Ry
     Harris-Foulkes estimate   =    -329.46752386 Ry
     estimated scf accuracy    <       0.28222776 Ry

[...]

     End of self-consistent calculation

          k = 0.0000 0.0000 0.0000 ( 22119 PWs)   bands (ev):

    -8.9182  -8.3497  -8.2758  -7.6389  -7.3723  -7.1579  -6.7617  -6.5694
    -6.4948  -6.1715  -5.8963  -5.6979  -5.5490  -5.4811  -5.4211  -5.3716
    -5.2567  -5.1684  -5.0333  -4.9950  -4.9606  -4.9494  -4.8793  -4.7775
    -4.6301  -4.2908  -4.1948  -3.6387  -2.4514  -2.0592  -0.4762   0.0630
     0.3381   0.7030

     the Fermi energy is    -3.6564 ev

!    total energy              =    -329.40857345 Ry
     Harris-Foulkes estimate   =    -329.40857352 Ry
     estimated scf accuracy    <          5.7E-09 Ry

     The total energy is the sum of the following terms:

     one-electron contribution =    -639.82819353 Ry
     hartree contribution      =     341.40384643 Ry
     xc contribution           =     -51.56321392 Ry
     ewald contribution        =      20.57283996 Ry
     smearing contrib. (-TS)   =       0.00614762 Ry

     convergence has been achieved in  12 iterations

     Forces acting on atoms (Ry/au):

     atom    1 type  1   force =    -0.01909535   -0.01233369   -0.02210612
     atom    2 type  1   force =    -0.06719819    0.01628015    0.04727674
     atom    3 type  1   force =     0.01270213   -0.03386873   -0.14361500
     atom    4 type  1   force =     0.04358779    0.03750156    0.10376633
     atom    5 type  1   force =     0.03000362   -0.00757929    0.01467805

     Total force =     0.212607     Total SCF correction =     0.000282

     BFGS Geometry Optimization

     number of scf cycles    =   1
     number of bfgs steps    =   0

     energy   new            =    -329.4085734532 Ry

     new trust radius        =       0.1481003132 bohr
     new conv_thr            =       0.0000000100 Ry

ATOMIC_POSITIONS (bohr)
Au      -0.937997347   0.538238307  -0.110871124
Au      -0.563320194   3.505688148   3.959732738
Au       3.371010130   2.998507267   0.859952002
Au       4.461314789   4.698094564   5.356580331
Au       6.863772622   0.295050712   3.170196053

     Writing output data file pwscf.save
     Check: negative starting charge=   -0.006277
     NEW-OLD atomic charge density approx. for the potential
     Check: negative starting charge=   -0.006065

[...]

     energy   old            =    -329.4085734532 Ry
     energy   new            =    -329.4386819463 Ry

     CASE: energy  _new < energy  _old

[...]

     iteration #  1     ecut=    30.00 Ry     beta=0.70
     Davidson diagonalization with overlap
     c_bands:  1 eigenvalues not converged
     ethr =  1.00E-06,  avg # of iterations = 20.0

[...]

     Threshold (ethr) on eigenvalues was too large:
     Diagonalizing with lowered threshold

     Davidson diagonalization with overlap
     ethr =  8.77E-08,  avg # of iterations =  1.0

[...]

     Self-consistent Calculation

[...]

     total energy              =    -329.49269232 Ry
     Harris-Foulkes estimate   =    -329.49269233 Ry
     estimated scf accuracy    <          1.4E-10 Ry

     iteration # 11     ecut=    30.00 Ry     beta=0.70
     Davidson diagonalization with overlap
     ethr =  2.53E-13,  avg # of iterations =  3.0

     End of self-consistent calculation

          k = 0.0000 0.0000 0.0000 ( 22119 PWs)   bands (ev):

    -8.5329  -7.7991  -7.6750  -7.2395  -6.8414  -6.8294  -6.6050  -6.4964
    -6.3119  -6.0928  -5.9481  -5.7725  -5.7326  -5.6900  -5.4687  -5.3555
    -5.3099  -5.2560  -5.1933  -5.1796  -5.1687  -5.1166  -4.9955  -4.9251
    -4.8234  -4.7340  -4.4822  -3.7719  -2.4469  -2.2013  -0.5383  -0.1466
     0.4809   0.8228

     the Fermi energy is    -3.7381 ev

!    total energy              =    -329.49269231 Ry
     Harris-Foulkes estimate   =    -329.49269232 Ry
     estimated scf accuracy    <          2.1E-11 Ry

     The total energy is the sum of the following terms:

     one-electron contribution =    -607.69316371 Ry
     hartree contribution      =     325.27419093 Ry
     xc contribution           =     -51.40155792 Ry
     ewald contribution        =       4.33246093 Ry
     smearing contrib. (-TS)   =      -0.00462254 Ry

     convergence has been achieved in  11 iterations

     Forces acting on atoms (Ry/au):

     atom    1 type  1   force =    -0.00020273    0.00045026    0.00124804
     atom    2 type  1   force =    -0.00046635    0.00072603   -0.00083532
     atom    3 type  1   force =     0.00068013   -0.00210659   -0.00169883
     atom    4 type  1   force =     0.00004801    0.00116479    0.00089728
     atom    5 type  1   force =    -0.00005906   -0.00023448    0.00038882

     Total force =     0.003661     Total SCF correction =     0.000020

     number of scf cycles    =  50
     number of bfgs steps    =  49

     energy   old            =    -329.4926354531 Ry
     energy   new            =    -329.4926923100 Ry

     CASE: energy  _new < energy  _old

     new trust radius        =       0.0486080909 bohr
     new conv_thr            =            1.0E-10 Ry

ATOMIC_POSITIONS (bohr)
Au      -1.392742803   1.195592213  -0.681705911
Au      -0.598211628   4.148472955   3.520224874
Au       3.262334710   1.137671878   1.269858511
Au       4.126581516   4.202650602   5.667212473
Au       7.796818205   1.351191352   3.460000053

     Writing output data file pwscf.save
     Check: negative starting charge=   -0.006315
     NEW-OLD atomic charge density approx. for the potential
     Check: negative starting charge=   -0.006321

     negative rho (up, down):  7.115E-04 0.000E+00

     Writing output data file pwscf.save

     General routines

     Parallel routines

   This run was terminated on:   4: 1:36   4Aug2017

   JOB DONE.